! Synthetic analytic benchmark, not measured PCB data.
! 50 ohm matched reciprocal attenuator, |S21|=0.5, delay=500 ps.
! Port[1] = TX
! Port[2] = RX
# Hz S RI R 50
0.000000000000e+00 0 0 5.0000000000000000e-01 0.0000000000000000e+00 5.0000000000000000e-01 0.0000000000000000e+00 0 0
1.000000000000e+08 0 0 4.7552825814757677e-01 -1.5450849718747370e-01 4.7552825814757677e-01 -1.5450849718747370e-01 0 0
2.000000000000e+08 0 0 4.0450849718747373e-01 -2.9389262614623657e-01 4.0450849718747373e-01 -2.9389262614623657e-01 0 0
3.000000000000e+08 0 0 2.9389262614623657e-01 -4.0450849718747373e-01 2.9389262614623657e-01 -4.0450849718747373e-01 0 0
4.000000000000e+08 0 0 1.5450849718747373e-01 -4.7552825814757677e-01 1.5450849718747373e-01 -4.7552825814757677e-01 0 0
5.000000000000e+08 0 0 -8.0406132483831830e-17 -5.0000000000000000e-01 -8.0406132483831830e-17 -5.0000000000000000e-01 0 0
6.000000000000e+08 0 0 -1.5450849718747367e-01 -4.7552825814757682e-01 -1.5450849718747367e-01 -4.7552825814757682e-01 0 0
7.000000000000e+08 0 0 -2.9389262614623651e-01 -4.0450849718747373e-01 -2.9389262614623651e-01 -4.0450849718747373e-01 0 0
8.000000000000e+08 0 0 -4.0450849718747367e-01 -2.9389262614623662e-01 -4.0450849718747367e-01 -2.9389262614623662e-01 0 0
9.000000000000e+08 0 0 -4.7552825814757682e-01 -1.5450849718747356e-01 -4.7552825814757682e-01 -1.5450849718747356e-01 0 0
1.000000000000e+09 0 0 -5.0000000000000000e-01 1.6081226496766366e-16 -5.0000000000000000e-01 1.6081226496766366e-16 0 0
1.100000000000e+09 0 0 -4.7552825814757682e-01 1.5450849718747364e-01 -4.7552825814757682e-01 1.5450849718747364e-01 0 0
1.200000000000e+09 0 0 -4.0450849718747373e-01 2.9389262614623651e-01 -4.0450849718747373e-01 2.9389262614623651e-01 0 0
1.300000000000e+09 0 0 -2.9389262614623662e-01 4.0450849718747367e-01 -2.9389262614623662e-01 4.0450849718747367e-01 0 0
1.400000000000e+09 0 0 -1.5450849718747378e-01 4.7552825814757677e-01 -1.5450849718747378e-01 4.7552825814757677e-01 0 0
1.500000000000e+09 0 0 -9.1848509936051484e-17 5.0000000000000000e-01 -9.1848509936051484e-17 5.0000000000000000e-01 0 0
1.600000000000e+09 0 0 1.5450849718747361e-01 4.7552825814757682e-01 1.5450849718747361e-01 4.7552825814757682e-01 0 0
1.700000000000e+09 0 0 2.9389262614623685e-01 4.0450849718747350e-01 2.9389262614623685e-01 4.0450849718747350e-01 0 0
1.800000000000e+09 0 0 4.0450849718747389e-01 2.9389262614623629e-01 4.0450849718747389e-01 2.9389262614623629e-01 0 0
1.900000000000e+09 0 0 4.7552825814757688e-01 1.5450849718747339e-01 4.7552825814757688e-01 1.5450849718747339e-01 0 0
2.000000000000e+09 0 0 5.0000000000000000e-01 -3.2162452993532732e-16 5.0000000000000000e-01 -3.2162452993532732e-16 0 0
2.100000000000e+09 0 0 4.7552825814757671e-01 -1.5450849718747400e-01 4.7552825814757671e-01 -1.5450849718747400e-01 0 0
2.200000000000e+09 0 0 4.0450849718747378e-01 -2.9389262614623646e-01 4.0450849718747378e-01 -2.9389262614623646e-01 0 0
2.300000000000e+09 0 0 2.9389262614623668e-01 -4.0450849718747361e-01 2.9389262614623668e-01 -4.0450849718747361e-01 0 0
2.400000000000e+09 0 0 1.5450849718747386e-01 -4.7552825814757677e-01 1.5450849718747386e-01 -4.7552825814757677e-01 0 0
2.500000000000e+09 0 0 1.5308084989341916e-16 -5.0000000000000000e-01 1.5308084989341916e-16 -5.0000000000000000e-01 0 0
2.600000000000e+09 0 0 -1.5450849718747356e-01 -4.7552825814757682e-01 -1.5450849718747356e-01 -4.7552825814757682e-01 0 0
2.700000000000e+09 0 0 -2.9389262614623646e-01 -4.0450849718747378e-01 -2.9389262614623646e-01 -4.0450849718747378e-01 0 0
2.800000000000e+09 0 0 -4.0450849718747361e-01 -2.9389262614623668e-01 -4.0450849718747361e-01 -2.9389262614623668e-01 0 0
2.900000000000e+09 0 0 -4.7552825814757699e-01 -1.5450849718747303e-01 -4.7552825814757699e-01 -1.5450849718747303e-01 0 0
3.000000000000e+09 0 0 -5.0000000000000000e-01 -1.8369701987210297e-16 -5.0000000000000000e-01 -1.8369701987210297e-16 0 0
3.100000000000e+09 0 0 -4.7552825814757682e-01 1.5450849718747353e-01 -4.7552825814757682e-01 1.5450849718747353e-01 0 0
3.200000000000e+09 0 0 -4.0450849718747384e-01 2.9389262614623640e-01 -4.0450849718747384e-01 2.9389262614623640e-01 0 0
3.300000000000e+09 0 0 -2.9389262614623674e-01 4.0450849718747361e-01 -2.9389262614623674e-01 4.0450849718747361e-01 0 0
3.400000000000e+09 0 0 -1.5450849718747306e-01 4.7552825814757699e-01 -1.5450849718747306e-01 4.7552825814757699e-01 0 0
3.500000000000e+09 0 0 -2.1431318985078681e-16 5.0000000000000000e-01 -2.1431318985078681e-16 5.0000000000000000e-01 0 0
3.600000000000e+09 0 0 1.5450849718747434e-01 4.7552825814757660e-01 1.5450849718747434e-01 4.7552825814757660e-01 0 0
3.700000000000e+09 0 0 2.9389262614623640e-01 4.0450849718747384e-01 2.9389262614623640e-01 4.0450849718747384e-01 0 0
3.800000000000e+09 0 0 4.0450849718747411e-01 2.9389262614623601e-01 4.0450849718747411e-01 2.9389262614623601e-01 0 0
3.900000000000e+09 0 0 4.7552825814757671e-01 1.5450849718747395e-01 4.7552825814757671e-01 1.5450849718747395e-01 0 0
4.000000000000e+09 0 0 5.0000000000000000e-01 -6.4324905987065464e-16 5.0000000000000000e-01 -6.4324905987065464e-16 0 0
4.100000000000e+09 0 0 4.7552825814757688e-01 -1.5450849718747348e-01 4.7552825814757688e-01 -1.5450849718747348e-01 0 0
4.200000000000e+09 0 0 4.0450849718747334e-01 -2.9389262614623707e-01 4.0450849718747334e-01 -2.9389262614623707e-01 0 0
4.300000000000e+09 0 0 2.9389262614623679e-01 -4.0450849718747356e-01 2.9389262614623679e-01 -4.0450849718747356e-01 0 0
4.400000000000e+09 0 0 1.5450849718747398e-01 -4.7552825814757671e-01 1.5450849718747398e-01 -4.7552825814757671e-01 0 0
4.500000000000e+09 0 0 -6.1263288989197075e-16 -5.0000000000000000e-01 -6.1263288989197075e-16 -5.0000000000000000e-01 0 0
4.600000000000e+09 0 0 -1.5450849718747345e-01 -4.7552825814757688e-01 -1.5450849718747345e-01 -4.7552825814757688e-01 0 0
4.700000000000e+09 0 0 -2.9389262614623707e-01 -4.0450849718747334e-01 -2.9389262614623707e-01 -4.0450849718747334e-01 0 0
4.800000000000e+09 0 0 -4.0450849718747356e-01 -2.9389262614623679e-01 -4.0450849718747356e-01 -2.9389262614623679e-01 0 0
4.900000000000e+09 0 0 -4.7552825814757699e-01 -1.5450849718747314e-01 -4.7552825814757699e-01 -1.5450849718747314e-01 0 0
5.000000000000e+09 0 0 -5.0000000000000000e-01 -3.0616169978683831e-16 -5.0000000000000000e-01 -3.0616169978683831e-16 0 0
5.100000000000e+09 0 0 -4.7552825814757660e-01 1.5450849718747425e-01 -4.7552825814757660e-01 1.5450849718747425e-01 0 0
5.200000000000e+09 0 0 -4.0450849718747389e-01 2.9389262614623629e-01 -4.0450849718747389e-01 2.9389262614623629e-01 0 0
5.300000000000e+09 0 0 -2.9389262614623612e-01 4.0450849718747406e-01 -2.9389262614623612e-01 4.0450849718747406e-01 0 0
5.400000000000e+09 0 0 -1.5450849718747403e-01 4.7552825814757671e-01 -1.5450849718747403e-01 4.7552825814757671e-01 0 0
5.500000000000e+09 0 0 5.5140054993460308e-16 5.0000000000000000e-01 5.5140054993460308e-16 5.0000000000000000e-01 0 0
5.600000000000e+09 0 0 1.5450849718747339e-01 4.7552825814757688e-01 1.5450849718747339e-01 4.7552825814757688e-01 0 0
5.700000000000e+09 0 0 2.9389262614623701e-01 4.0450849718747339e-01 2.9389262614623701e-01 4.0450849718747339e-01 0 0
5.800000000000e+09 0 0 4.0450849718747456e-01 2.9389262614623540e-01 4.0450849718747456e-01 2.9389262614623540e-01 0 0
5.900000000000e+09 0 0 4.7552825814757693e-01 1.5450849718747320e-01 4.7552825814757693e-01 1.5450849718747320e-01 0 0
6.000000000000e+09 0 0 5.0000000000000000e-01 3.6739403974420594e-16 5.0000000000000000e-01 3.6739403974420594e-16 0 0
6.100000000000e+09 0 0 4.7552825814757665e-01 -1.5450849718747420e-01 4.7552825814757665e-01 -1.5450849718747420e-01 0 0
6.200000000000e+09 0 0 4.0450849718747395e-01 -2.9389262614623624e-01 4.0450849718747395e-01 -2.9389262614623624e-01 0 0
6.300000000000e+09 0 0 2.9389262614623618e-01 -4.0450849718747400e-01 2.9389262614623618e-01 -4.0450849718747400e-01 0 0
6.400000000000e+09 0 0 1.5450849718747409e-01 -4.7552825814757665e-01 1.5450849718747409e-01 -4.7552825814757665e-01 0 0
6.500000000000e+09 0 0 -4.9016820997723541e-16 -5.0000000000000000e-01 -4.9016820997723541e-16 -5.0000000000000000e-01 0 0
6.600000000000e+09 0 0 -1.5450849718747334e-01 -4.7552825814757693e-01 -1.5450849718747334e-01 -4.7552825814757693e-01 0 0
6.700000000000e+09 0 0 -2.9389262614623696e-01 -4.0450849718747345e-01 -2.9389262614623696e-01 -4.0450849718747345e-01 0 0
6.800000000000e+09 0 0 -4.0450849718747450e-01 -2.9389262614623546e-01 -4.0450849718747450e-01 -2.9389262614623546e-01 0 0
6.900000000000e+09 0 0 -4.7552825814757693e-01 -1.5450849718747328e-01 -4.7552825814757693e-01 -1.5450849718747328e-01 0 0
7.000000000000e+09 0 0 -5.0000000000000000e-01 -4.2862637970157361e-16 -5.0000000000000000e-01 -4.2862637970157361e-16 0 0
7.100000000000e+09 0 0 -4.7552825814757665e-01 1.5450849718747414e-01 -4.7552825814757665e-01 1.5450849718747414e-01 0 0
7.200000000000e+09 0 0 -4.0450849718747295e-01 2.9389262614623762e-01 -4.0450849718747295e-01 2.9389262614623762e-01 0 0
7.300000000000e+09 0 0 -2.9389262614623624e-01 4.0450849718747395e-01 -2.9389262614623624e-01 4.0450849718747395e-01 0 0
7.400000000000e+09 0 0 -1.5450849718747414e-01 4.7552825814757665e-01 -1.5450849718747414e-01 4.7552825814757665e-01 0 0
7.500000000000e+09 0 0 -1.3474209693803826e-15 5.0000000000000000e-01 -1.3474209693803826e-15 5.0000000000000000e-01 0 0
7.600000000000e+09 0 0 1.5450849718747495e-01 4.7552825814757638e-01 1.5450849718747495e-01 4.7552825814757638e-01 0 0
7.700000000000e+09 0 0 2.9389262614623690e-01 4.0450849718747345e-01 2.9389262614623690e-01 4.0450849718747345e-01 0 0
7.800000000000e+09 0 0 4.0450849718747345e-01 2.9389262614623696e-01 4.0450849718747345e-01 2.9389262614623696e-01 0 0
7.900000000000e+09 0 0 4.7552825814757693e-01 1.5450849718747334e-01 4.7552825814757693e-01 1.5450849718747334e-01 0 0
8.000000000000e+09 0 0 5.0000000000000000e-01 -1.2864981197413093e-15 5.0000000000000000e-01 -1.2864981197413093e-15 0 0
8.100000000000e+09 0 0 4.7552825814757665e-01 -1.5450849718747409e-01 4.7552825814757665e-01 -1.5450849718747409e-01 0 0
8.200000000000e+09 0 0 4.0450849718747400e-01 -2.9389262614623618e-01 4.0450849718747400e-01 -2.9389262614623618e-01 0 0
8.300000000000e+09 0 0 2.9389262614623624e-01 -4.0450849718747395e-01 2.9389262614623624e-01 -4.0450849718747395e-01 0 0
8.400000000000e+09 0 0 1.5450849718747250e-01 -4.7552825814757715e-01 1.5450849718747250e-01 -4.7552825814757715e-01 0 0
8.500000000000e+09 0 0 -3.6770353006250011e-16 -5.0000000000000000e-01 -3.6770353006250011e-16 -5.0000000000000000e-01 0 0
8.600000000000e+09 0 0 -1.5450849718747320e-01 -4.7552825814757693e-01 -1.5450849718747320e-01 -4.7552825814757693e-01 0 0
8.700000000000e+09 0 0 -2.9389262614623685e-01 -4.0450849718747350e-01 -2.9389262614623685e-01 -4.0450849718747350e-01 0 0
8.800000000000e+09 0 0 -4.0450849718747339e-01 -2.9389262614623701e-01 -4.0450849718747339e-01 -2.9389262614623701e-01 0 0
8.900000000000e+09 0 0 -4.7552825814757688e-01 -1.5450849718747339e-01 -4.7552825814757688e-01 -1.5450849718747339e-01 0 0
9.000000000000e+09 0 0 -5.0000000000000000e-01 1.2252657797839415e-15 -5.0000000000000000e-01 1.2252657797839415e-15 0 0
9.100000000000e+09 0 0 -4.7552825814757671e-01 1.5450849718747403e-01 -4.7552825814757671e-01 1.5450849718747403e-01 0 0
9.200000000000e+09 0 0 -4.0450849718747406e-01 2.9389262614623612e-01 -4.0450849718747406e-01 2.9389262614623612e-01 0 0
9.300000000000e+09 0 0 -2.9389262614623629e-01 4.0450849718747389e-01 -2.9389262614623629e-01 4.0450849718747389e-01 0 0
9.400000000000e+09 0 0 -1.5450849718747256e-01 4.7552825814757715e-01 -1.5450849718747256e-01 4.7552825814757715e-01 0 0
9.500000000000e+09 0 0 3.0647119010513249e-16 5.0000000000000000e-01 3.0647119010513249e-16 5.0000000000000000e-01 0 0
9.600000000000e+09 0 0 1.5450849718747314e-01 4.7552825814757699e-01 1.5450849718747314e-01 4.7552825814757699e-01 0 0
9.700000000000e+09 0 0 2.9389262614623679e-01 4.0450849718747356e-01 2.9389262614623679e-01 4.0450849718747356e-01 0 0
9.800000000000e+09 0 0 4.0450849718747439e-01 2.9389262614623562e-01 4.0450849718747439e-01 2.9389262614623562e-01 0 0
9.900000000000e+09 0 0 4.7552825814757688e-01 1.5450849718747345e-01 4.7552825814757688e-01 1.5450849718747345e-01 0 0
1.000000000000e+10 0 0 5.0000000000000000e-01 6.1232339957367663e-16 5.0000000000000000e-01 6.1232339957367663e-16 0 0
1.010000000000e+10 0 0 4.7552825814757615e-01 -1.5450849718747567e-01 4.7552825814757615e-01 -1.5450849718747567e-01 0 0
1.020000000000e+10 0 0 4.0450849718747306e-01 -2.9389262614623751e-01 4.0450849718747306e-01 -2.9389262614623751e-01 0 0
1.030000000000e+10 0 0 2.9389262614623779e-01 -4.0450849718747284e-01 2.9389262614623779e-01 -4.0450849718747284e-01 0 0
1.040000000000e+10 0 0 1.5450849718747431e-01 -4.7552825814757660e-01 1.5450849718747431e-01 -4.7552825814757660e-01 0 0
1.050000000000e+10 0 0 -2.4523885014776482e-16 -5.0000000000000000e-01 -2.4523885014776482e-16 -5.0000000000000000e-01 0 0
1.060000000000e+10 0 0 -1.5450849718747478e-01 -4.7552825814757643e-01 -1.5450849718747478e-01 -4.7552825814757643e-01 0 0
1.070000000000e+10 0 0 -2.9389262614623529e-01 -4.0450849718747461e-01 -2.9389262614623529e-01 -4.0450849718747461e-01 0 0
1.080000000000e+10 0 0 -4.0450849718747334e-01 -2.9389262614623712e-01 -4.0450849718747334e-01 -2.9389262614623712e-01 0 0
1.090000000000e+10 0 0 -4.7552825814757688e-01 -1.5450849718747350e-01 -4.7552825814757688e-01 -1.5450849718747350e-01 0 0
1.100000000000e+10 0 0 -5.0000000000000000e-01 1.1028010998692062e-15 -5.0000000000000000e-01 1.1028010998692062e-15 0 0
1.110000000000e+10 0 0 -4.7552825814757727e-01 1.5450849718747223e-01 -4.7552825814757727e-01 1.5450849718747223e-01 0 0
1.120000000000e+10 0 0 -4.0450849718747411e-01 2.9389262614623601e-01 -4.0450849718747411e-01 2.9389262614623601e-01 0 0
1.130000000000e+10 0 0 -2.9389262614623640e-01 4.0450849718747384e-01 -2.9389262614623640e-01 4.0450849718747384e-01 0 0
1.140000000000e+10 0 0 -1.5450849718747270e-01 4.7552825814757710e-01 -1.5450849718747270e-01 4.7552825814757710e-01 0 0
1.150000000000e+10 0 0 1.9603633495906478e-15 5.0000000000000000e-01 1.9603633495906478e-15 5.0000000000000000e-01 0 0
1.160000000000e+10 0 0 1.5450849718747642e-01 4.7552825814757593e-01 1.5450849718747642e-01 4.7552825814757593e-01 0 0
1.170000000000e+10 0 0 2.9389262614623668e-01 4.0450849718747361e-01 2.9389262614623668e-01 4.0450849718747361e-01 0 0
1.180000000000e+10 0 0 4.0450849718747434e-01 2.9389262614623568e-01 4.0450849718747434e-01 2.9389262614623568e-01 0 0
1.190000000000e+10 0 0 4.7552825814757627e-01 1.5450849718747525e-01 4.7552825814757627e-01 1.5450849718747525e-01 0 0
1.200000000000e+10 0 0 5.0000000000000000e-01 7.3478807948841188e-16 5.0000000000000000e-01 7.3478807948841188e-16 0 0
1.210000000000e+10 0 0 4.7552825814757677e-01 -1.5450849718747386e-01 4.7552825814757677e-01 -1.5450849718747386e-01 0 0
1.220000000000e+10 0 0 4.0450849718747312e-01 -2.9389262614623740e-01 4.0450849718747312e-01 -2.9389262614623740e-01 0 0
1.230000000000e+10 0 0 2.9389262614623501e-01 -4.0450849718747484e-01 2.9389262614623501e-01 -4.0450849718747484e-01 0 0
1.240000000000e+10 0 0 1.5450849718747445e-01 -4.7552825814757654e-01 1.5450849718747445e-01 -4.7552825814757654e-01 0 0
1.250000000000e+10 0 0 -1.2277417023302950e-16 -5.0000000000000000e-01 -1.2277417023302950e-16 -5.0000000000000000e-01 0 0
1.260000000000e+10 0 0 -1.5450849718747467e-01 -4.7552825814757649e-01 -1.5450849718747467e-01 -4.7552825814757649e-01 0 0
1.270000000000e+10 0 0 -2.9389262614623524e-01 -4.0450849718747467e-01 -2.9389262614623524e-01 -4.0450849718747467e-01 0 0
1.280000000000e+10 0 0 -4.0450849718747328e-01 -2.9389262614623718e-01 -4.0450849718747328e-01 -2.9389262614623718e-01 0 0
1.290000000000e+10 0 0 -4.7552825814757793e-01 -1.5450849718747023e-01 -4.7552825814757793e-01 -1.5450849718747023e-01 0 0
1.300000000000e+10 0 0 -5.0000000000000000e-01 9.8033641995447082e-16 -5.0000000000000000e-01 9.8033641995447082e-16 0 0
1.310000000000e+10 0 0 -4.7552825814757621e-01 1.5450849718747547e-01 -4.7552825814757621e-01 1.5450849718747547e-01 0 0
1.320000000000e+10 0 0 -4.0450849718747417e-01 2.9389262614623590e-01 -4.0450849718747417e-01 2.9389262614623590e-01 0 0
1.330000000000e+10 0 0 -2.9389262614623651e-01 4.0450849718747373e-01 -2.9389262614623651e-01 4.0450849718747373e-01 0 0
1.340000000000e+10 0 0 -1.5450849718747281e-01 4.7552825814757710e-01 -1.5450849718747281e-01 4.7552825814757710e-01 0 0
1.350000000000e+10 0 0 -1.7148150091245887e-15 5.0000000000000000e-01 -1.7148150091245887e-15 5.0000000000000000e-01 0 0
1.360000000000e+10 0 0 1.5450849718747631e-01 4.7552825814757593e-01 1.5450849718747631e-01 4.7552825814757593e-01 0 0
1.370000000000e+10 0 0 2.9389262614623662e-01 4.0450849718747367e-01 2.9389262614623662e-01 4.0450849718747367e-01 0 0
1.380000000000e+10 0 0 4.0450849718747428e-01 2.9389262614623579e-01 4.0450849718747428e-01 2.9389262614623579e-01 0 0
1.390000000000e+10 0 0 4.7552825814757732e-01 1.5450849718747198e-01 4.7552825814757732e-01 1.5450849718747198e-01 0 0
1.400000000000e+10 0 0 5.0000000000000000e-01 8.5725275940314722e-16 5.0000000000000000e-01 8.5725275940314722e-16 0 0
1.410000000000e+10 0 0 4.7552825814757677e-01 -1.5450849718747373e-01 4.7552825814757677e-01 -1.5450849718747373e-01 0 0
1.420000000000e+10 0 0 4.0450849718747317e-01 -2.9389262614623729e-01 4.0450849718747317e-01 -2.9389262614623729e-01 0 0
1.430000000000e+10 0 0 2.9389262614623801e-01 -4.0450849718747267e-01 2.9389262614623801e-01 -4.0450849718747267e-01 0 0
1.440000000000e+10 0 0 1.5450849718747117e-01 -4.7552825814757760e-01 1.5450849718747117e-01 -4.7552825814757760e-01 0 0
1.450000000000e+10 0 0 -3.0949031829417885e-19 -5.0000000000000000e-01 -3.0949031829417885e-19 -5.0000000000000000e-01 0 0
1.460000000000e+10 0 0 -1.5450849718747456e-01 -4.7552825814757649e-01 -1.5450849718747456e-01 -4.7552825814757649e-01 0 0
1.470000000000e+10 0 0 -2.9389262614623801e-01 -4.0450849718747267e-01 -2.9389262614623801e-01 -4.0450849718747267e-01 0 0
1.480000000000e+10 0 0 -4.0450849718747317e-01 -2.9389262614623729e-01 -4.0450849718747317e-01 -2.9389262614623729e-01 0 0
1.490000000000e+10 0 0 -4.7552825814757677e-01 -1.5450849718747373e-01 -4.7552825814757677e-01 -1.5450849718747373e-01 0 0
1.500000000000e+10 0 0 -5.0000000000000000e-01 -2.6948419387607653e-15 -5.0000000000000000e-01 -2.6948419387607653e-15 0 0
1.510000000000e+10 0 0 -4.7552825814757627e-01 1.5450849718747536e-01 -4.7552825814757627e-01 1.5450849718747536e-01 0 0
1.520000000000e+10 0 0 -4.0450849718747217e-01 2.9389262614623868e-01 -4.0450849718747217e-01 2.9389262614623868e-01 0 0
1.530000000000e+10 0 0 -2.9389262614623662e-01 4.0450849718747367e-01 -2.9389262614623662e-01 4.0450849718747367e-01 0 0
1.540000000000e+10 0 0 -1.5450849718747292e-01 4.7552825814757704e-01 -1.5450849718747292e-01 4.7552825814757704e-01 0 0
1.550000000000e+10 0 0 1.7154339897611769e-15 5.0000000000000000e-01 1.7154339897611769e-15 5.0000000000000000e-01 0 0
1.560000000000e+10 0 0 1.5450849718747281e-01 4.7552825814757710e-01 1.5450849718747281e-01 4.7552825814757710e-01 0 0
1.570000000000e+10 0 0 2.9389262614623651e-01 4.0450849718747373e-01 2.9389262614623651e-01 4.0450849718747373e-01 0 0
1.580000000000e+10 0 0 4.0450849718747417e-01 2.9389262614623590e-01 4.0450849718747417e-01 2.9389262614623590e-01 0 0
1.590000000000e+10 0 0 4.7552825814757732e-01 1.5450849718747212e-01 4.7552825814757732e-01 1.5450849718747212e-01 0 0
1.600000000000e+10 0 0 5.0000000000000000e-01 -2.5729962394826186e-15 5.0000000000000000e-01 -2.5729962394826186e-15 0 0
1.610000000000e+10 0 0 4.7552825814757682e-01 -1.5450849718747361e-01 4.7552825814757682e-01 -1.5450849718747361e-01 0 0
1.620000000000e+10 0 0 4.0450849718747328e-01 -2.9389262614623718e-01 4.0450849718747328e-01 -2.9389262614623718e-01 0 0
1.630000000000e+10 0 0 2.9389262614623807e-01 -4.0450849718747262e-01 2.9389262614623807e-01 -4.0450849718747262e-01 0 0
1.640000000000e+10 0 0 1.5450849718747467e-01 -4.7552825814757649e-01 1.5450849718747467e-01 -4.7552825814757649e-01 0 0
1.650000000000e+10 0 0 1.2215518959644115e-16 -5.0000000000000000e-01 1.2215518959644115e-16 -5.0000000000000000e-01 0 0
1.660000000000e+10 0 0 -1.5450849718747445e-01 -4.7552825814757654e-01 -1.5450849718747445e-01 -4.7552825814757654e-01 0 0
1.670000000000e+10 0 0 -2.9389262614623790e-01 -4.0450849718747273e-01 -2.9389262614623790e-01 -4.0450849718747273e-01 0 0
1.680000000000e+10 0 0 -4.0450849718747522e-01 -2.9389262614623451e-01 -4.0450849718747522e-01 -2.9389262614623451e-01 0 0
1.690000000000e+10 0 0 -4.7552825814757677e-01 -1.5450849718747386e-01 -4.7552825814757677e-01 -1.5450849718747386e-01 0 0
1.700000000000e+10 0 0 -5.0000000000000000e-01 7.3540706012500023e-16 -5.0000000000000000e-01 7.3540706012500023e-16 0 0
1.710000000000e+10 0 0 -4.7552825814757738e-01 1.5450849718747187e-01 -4.7552825814757738e-01 1.5450849718747187e-01 0 0
1.720000000000e+10 0 0 -4.0450849718747434e-01 2.9389262614623568e-01 -4.0450849718747434e-01 2.9389262614623568e-01 0 0
1.730000000000e+10 0 0 -2.9389262614623385e-01 4.0450849718747572e-01 -2.9389262614623385e-01 4.0450849718747572e-01 0 0
1.740000000000e+10 0 0 -1.5450849718747303e-01 4.7552825814757699e-01 -1.5450849718747303e-01 4.7552825814757699e-01 0 0
1.750000000000e+10 0 0 1.5929693098464416e-15 5.0000000000000000e-01 1.5929693098464416e-15 5.0000000000000000e-01 0 0
1.760000000000e+10 0 0 1.5450849718747270e-01 4.7552825814757710e-01 1.5450849718747270e-01 4.7552825814757710e-01 0 0
1.770000000000e+10 0 0 2.9389262614623640e-01 4.0450849718747384e-01 2.9389262614623640e-01 4.0450849718747384e-01 0 0
1.780000000000e+10 0 0 4.0450849718747411e-01 2.9389262614623601e-01 4.0450849718747411e-01 2.9389262614623601e-01 0 0
1.790000000000e+10 0 0 4.7552825814757615e-01 1.5450849718747561e-01 4.7552825814757615e-01 1.5450849718747561e-01 0 0
1.800000000000e+10 0 0 5.0000000000000000e-01 -2.4505315595678830e-15 5.0000000000000000e-01 -2.4505315595678830e-15 0 0
1.810000000000e+10 0 0 4.7552825814757577e-01 -1.5450849718747689e-01 4.7552825814757577e-01 -1.5450849718747689e-01 0 0
1.820000000000e+10 0 0 4.0450849718747334e-01 -2.9389262614623712e-01 4.0450849718747334e-01 -2.9389262614623712e-01 0 0
1.830000000000e+10 0 0 2.9389262614623529e-01 -4.0450849718747461e-01 2.9389262614623529e-01 -4.0450849718747461e-01 0 0
1.840000000000e+10 0 0 1.5450849718747478e-01 -4.7552825814757643e-01 1.5450849718747478e-01 -4.7552825814757643e-01 0 0
1.850000000000e+10 0 0 2.4461986951117647e-16 -5.0000000000000000e-01 2.4461986951117647e-16 -5.0000000000000000e-01 0 0
1.860000000000e+10 0 0 -1.5450849718747431e-01 -4.7552825814757660e-01 -1.5450849718747431e-01 -4.7552825814757660e-01 0 0
1.870000000000e+10 0 0 -2.9389262614623490e-01 -4.0450849718747489e-01 -2.9389262614623490e-01 -4.0450849718747489e-01 0 0
1.880000000000e+10 0 0 -4.0450849718747511e-01 -2.9389262614623463e-01 -4.0450849718747511e-01 -2.9389262614623463e-01 0 0
1.890000000000e+10 0 0 -4.7552825814757782e-01 -1.5450849718747059e-01 -4.7552825814757782e-01 -1.5450849718747059e-01 0 0
1.900000000000e+10 0 0 -5.0000000000000000e-01 6.1294238021026498e-16 -5.0000000000000000e-01 6.1294238021026498e-16 0 0
1.910000000000e+10 0 0 -4.7552825814757632e-01 1.5450849718747514e-01 -4.7552825814757632e-01 1.5450849718747514e-01 0 0
1.920000000000e+10 0 0 -4.0450849718747439e-01 2.9389262614623562e-01 -4.0450849718747439e-01 2.9389262614623562e-01 0 0
1.930000000000e+10 0 0 -2.9389262614623679e-01 4.0450849718747356e-01 -2.9389262614623679e-01 4.0450849718747356e-01 0 0
1.940000000000e+10 0 0 -1.5450849718747314e-01 4.7552825814757699e-01 -1.5450849718747314e-01 4.7552825814757699e-01 0 0
1.950000000000e+10 0 0 1.4705046299317064e-15 5.0000000000000000e-01 1.4705046299317064e-15 5.0000000000000000e-01 0 0
1.960000000000e+10 0 0 1.5450849718747595e-01 4.7552825814757604e-01 1.5450849718747595e-01 4.7552825814757604e-01 0 0
1.970000000000e+10 0 0 2.9389262614623629e-01 4.0450849718747389e-01 2.9389262614623629e-01 4.0450849718747389e-01 0 0
1.980000000000e+10 0 0 4.0450849718747406e-01 2.9389262614623612e-01 4.0450849718747406e-01 2.9389262614623612e-01 0 0
1.990000000000e+10 0 0 4.7552825814757721e-01 1.5450849718747234e-01 4.7552825814757721e-01 1.5450849718747234e-01 0 0
2.000000000000e+10 0 0 5.0000000000000000e-01 1.2246467991473533e-15 5.0000000000000000e-01 1.2246467991473533e-15 0 0
2.010000000000e+10 0 0 4.7552825814757688e-01 -1.5450849718747339e-01 4.7552825814757688e-01 -1.5450849718747339e-01 0 0
2.020000000000e+10 0 0 4.0450849718747128e-01 -2.9389262614623990e-01 4.0450849718747128e-01 -2.9389262614623990e-01 0 0
2.030000000000e+10 0 0 2.9389262614623540e-01 -4.0450849718747456e-01 2.9389262614623540e-01 -4.0450849718747456e-01 0 0
2.040000000000e+10 0 0 1.5450849718747153e-01 -4.7552825814757749e-01 1.5450849718747153e-01 -4.7552825814757749e-01 0 0
2.050000000000e+10 0 0 -3.1856291293745893e-15 -5.0000000000000000e-01 -3.1856291293745893e-15 -5.0000000000000000e-01 0 0
2.060000000000e+10 0 0 -1.5450849718747081e-01 -4.7552825814757771e-01 -1.5450849718747081e-01 -4.7552825814757771e-01 0 0
2.070000000000e+10 0 0 -2.9389262614623479e-01 -4.0450849718747500e-01 -2.9389262614623479e-01 -4.0450849718747500e-01 0 0
2.080000000000e+10 0 0 -4.0450849718747295e-01 -2.9389262614623757e-01 -4.0450849718747295e-01 -2.9389262614623757e-01 0 0
2.090000000000e+10 0 0 -4.7552825814757665e-01 -1.5450849718747409e-01 -4.7552825814757665e-01 -1.5450849718747409e-01 0 0
2.100000000000e+10 0 0 -5.0000000000000000e-01 4.9047770029552963e-16 -5.0000000000000000e-01 4.9047770029552963e-16 0 0
2.110000000000e+10 0 0 -4.7552825814757638e-01 1.5450849718747503e-01 -4.7552825814757638e-01 1.5450849718747503e-01 0 0
2.120000000000e+10 0 0 -4.0450849718747239e-01 2.9389262614623840e-01 -4.0450849718747239e-01 2.9389262614623840e-01 0 0
2.130000000000e+10 0 0 -2.9389262614623402e-01 4.0450849718747556e-01 -2.9389262614623402e-01 4.0450849718747556e-01 0 0
2.140000000000e+10 0 0 -1.5450849718747664e-01 4.7552825814757582e-01 -1.5450849718747664e-01 4.7552825814757582e-01 0 0
2.150000000000e+10 0 0 -2.2046737287835300e-15 5.0000000000000000e-01 -2.2046737287835300e-15 5.0000000000000000e-01 0 0
2.160000000000e+10 0 0 1.5450849718747245e-01 4.7552825814757721e-01 1.5450849718747245e-01 4.7552825814757721e-01 0 0
2.170000000000e+10 0 0 2.9389262614623624e-01 4.0450849718747395e-01 2.9389262614623624e-01 4.0450849718747395e-01 0 0
2.180000000000e+10 0 0 4.0450849718747395e-01 2.9389262614623624e-01 4.0450849718747395e-01 2.9389262614623624e-01 0 0
2.190000000000e+10 0 0 4.7552825814757721e-01 1.5450849718747245e-01 4.7552825814757721e-01 1.5450849718747245e-01 0 0
2.200000000000e+10 0 0 5.0000000000000000e-01 -2.2056021997384123e-15 5.0000000000000000e-01 -2.2056021997384123e-15 0 0
2.210000000000e+10 0 0 4.7552825814757582e-01 -1.5450849718747664e-01 4.7552825814757582e-01 -1.5450849718747664e-01 0 0
2.220000000000e+10 0 0 4.0450849718747556e-01 -2.9389262614623402e-01 4.0450849718747556e-01 -2.9389262614623402e-01 0 0
2.230000000000e+10 0 0 2.9389262614623840e-01 -4.0450849718747239e-01 2.9389262614623840e-01 -4.0450849718747239e-01 0 0
2.240000000000e+10 0 0 1.5450849718747500e-01 -4.7552825814757638e-01 1.5450849718747500e-01 -4.7552825814757638e-01 0 0
2.250000000000e+10 0 0 4.8954922934064706e-16 -5.0000000000000000e-01 4.8954922934064706e-16 -5.0000000000000000e-01 0 0
2.260000000000e+10 0 0 -1.5450849718747409e-01 -4.7552825814757665e-01 -1.5450849718747409e-01 -4.7552825814757665e-01 0 0
2.270000000000e+10 0 0 -2.9389262614623185e-01 -4.0450849718747717e-01 -2.9389262614623185e-01 -4.0450849718747717e-01 0 0
2.280000000000e+10 0 0 -4.0450849718747500e-01 -2.9389262614623479e-01 -4.0450849718747500e-01 -2.9389262614623479e-01 0 0
2.290000000000e+10 0 0 -4.7552825814757771e-01 -1.5450849718747081e-01 -4.7552825814757771e-01 -1.5450849718747081e-01 0 0
2.300000000000e+10 0 0 -5.0000000000000000e-01 3.9207266991812956e-15 -5.0000000000000000e-01 3.9207266991812956e-15 0 0
2.310000000000e+10 0 0 -4.7552825814757532e-01 1.5450849718747828e-01 -4.7552825814757532e-01 1.5450849718747828e-01 0 0
2.320000000000e+10 0 0 -4.0450849718747039e-01 2.9389262614624118e-01 -4.0450849718747039e-01 2.9389262614624118e-01 0 0
2.330000000000e+10 0 0 -2.9389262614623701e-01 4.0450849718747339e-01 -2.9389262614623701e-01 4.0450849718747339e-01 0 0
2.340000000000e+10 0 0 -1.5450849718747339e-01 4.7552825814757688e-01 -1.5450849718747339e-01 4.7552825814757688e-01 0 0
2.350000000000e+10 0 0 1.2255752701022357e-15 5.0000000000000000e-01 1.2255752701022357e-15 5.0000000000000000e-01 0 0
2.360000000000e+10 0 0 1.5450849718747572e-01 4.7552825814757615e-01 1.5450849718747572e-01 4.7552825814757615e-01 0 0
2.370000000000e+10 0 0 2.9389262614623901e-01 4.0450849718747195e-01 2.9389262614623901e-01 4.0450849718747195e-01 0 0
2.380000000000e+10 0 0 4.0450849718747184e-01 2.9389262614623918e-01 4.0450849718747184e-01 2.9389262614623918e-01 0 0
2.390000000000e+10 0 0 4.7552825814757604e-01 1.5450849718747595e-01 4.7552825814757604e-01 1.5450849718747595e-01 0 0
2.400000000000e+10 0 0 5.0000000000000000e-01 1.4695761589768238e-15 5.0000000000000000e-01 1.4695761589768238e-15 0 0
2.410000000000e+10 0 0 4.7552825814757699e-01 -1.5450849718747314e-01 4.7552825814757699e-01 -1.5450849718747314e-01 0 0
2.420000000000e+10 0 0 4.0450849718747356e-01 -2.9389262614623679e-01 4.0450849718747356e-01 -2.9389262614623679e-01 0 0
2.430000000000e+10 0 0 2.9389262614623562e-01 -4.0450849718747439e-01 2.9389262614623562e-01 -4.0450849718747439e-01 0 0
2.440000000000e+10 0 0 1.5450849718747175e-01 -4.7552825814757743e-01 1.5450849718747175e-01 -4.7552825814757743e-01 0 0
2.450000000000e+10 0 0 -2.9406997695451186e-15 -5.0000000000000000e-01 -2.9406997695451186e-15 -5.0000000000000000e-01 0 0
2.460000000000e+10 0 0 -1.5450849718747733e-01 -4.7552825814757560e-01 -1.5450849718747733e-01 -4.7552825814757560e-01 0 0
2.470000000000e+10 0 0 -2.9389262614624034e-01 -4.0450849718747095e-01 -2.9389262614624034e-01 -4.0450849718747095e-01 0 0
2.480000000000e+10 0 0 -4.0450849718747284e-01 -2.9389262614623779e-01 -4.0450849718747284e-01 -2.9389262614623779e-01 0 0
2.490000000000e+10 0 0 -4.7552825814757660e-01 -1.5450849718747431e-01 -4.7552825814757660e-01 -1.5450849718747431e-01 0 0
2.500000000000e+10 0 0 -5.0000000000000000e-01 2.4554834046605899e-16 -5.0000000000000000e-01 2.4554834046605899e-16 0 0
2.510000000000e+10 0 0 -4.7552825814757643e-01 1.5450849718747478e-01 -4.7552825814757643e-01 1.5450849718747478e-01 0 0
2.520000000000e+10 0 0 -4.0450849718747250e-01 2.9389262614623818e-01 -4.0450849718747250e-01 2.9389262614623818e-01 0 0
2.530000000000e+10 0 0 -2.9389262614623995e-01 4.0450849718747123e-01 -2.9389262614623995e-01 4.0450849718747123e-01 0 0
2.540000000000e+10 0 0 -1.5450849718747689e-01 4.7552825814757577e-01 -1.5450849718747689e-01 4.7552825814757577e-01 0 0
2.550000000000e+10 0 0 -2.4496030886130003e-15 5.0000000000000000e-01 -2.4496030886130003e-15 5.0000000000000000e-01 0 0
2.560000000000e+10 0 0 1.5450849718747223e-01 4.7552825814757727e-01 1.5450849718747223e-01 4.7552825814757727e-01 0 0
2.570000000000e+10 0 0 2.9389262614624173e-01 4.0450849718746995e-01 2.9389262614624173e-01 4.0450849718746995e-01 0 0
2.580000000000e+10 0 0 4.0450849718747800e-01 2.9389262614623068e-01 4.0450849718747800e-01 2.9389262614623068e-01 0 0
2.590000000000e+10 0 0 4.7552825814757710e-01 1.5450849718747270e-01 4.7552825814757710e-01 1.5450849718747270e-01 0 0
2.600000000000e+10 0 0 5.0000000000000000e-01 -1.9606728399089416e-15 5.0000000000000000e-01 -1.9606728399089416e-15 0 0
2.610000000000e+10 0 0 4.7552825814757593e-01 -1.5450849718747642e-01 4.7552825814757593e-01 -1.5450849718747642e-01 0 0
2.620000000000e+10 0 0 4.0450849718747151e-01 -2.9389262614623957e-01 4.0450849718747151e-01 -2.9389262614623957e-01 0 0
2.630000000000e+10 0 0 2.9389262614623285e-01 -4.0450849718747639e-01 2.9389262614623285e-01 -4.0450849718747639e-01 0 0
2.640000000000e+10 0 0 1.5450849718747525e-01 -4.7552825814757627e-01 1.5450849718747525e-01 -4.7552825814757627e-01 0 0
2.650000000000e+10 0 0 7.3447858917011775e-16 -5.0000000000000000e-01 7.3447858917011775e-16 -5.0000000000000000e-01 0 0
2.660000000000e+10 0 0 -1.5450849718747386e-01 -4.7552825814757677e-01 -1.5450849718747386e-01 -4.7552825814757677e-01 0 0
2.670000000000e+10 0 0 -2.9389262614623740e-01 -4.0450849718747312e-01 -2.9389262614623740e-01 -4.0450849718747312e-01 0 0
2.680000000000e+10 0 0 -4.0450849718747484e-01 -2.9389262614623501e-01 -4.0450849718747484e-01 -2.9389262614623501e-01 0 0
2.690000000000e+10 0 0 -4.7552825814757543e-01 -1.5450849718747781e-01 -4.7552825814757543e-01 -1.5450849718747781e-01 0 0
2.700000000000e+10 0 0 -5.0000000000000000e-01 -3.4296300182491773e-15 -5.0000000000000000e-01 -3.4296300182491773e-15 0 0
2.710000000000e+10 0 0 -4.7552825814757760e-01 1.5450849718747128e-01 -4.7552825814757760e-01 1.5450849718747128e-01 0 0
2.720000000000e+10 0 0 -4.0450849718747051e-01 2.9389262614624095e-01 -4.0450849718747051e-01 2.9389262614624095e-01 0 0
2.730000000000e+10 0 0 -2.9389262614623146e-01 4.0450849718747744e-01 -2.9389262614623146e-01 4.0450849718747744e-01 0 0
2.740000000000e+10 0 0 -1.5450849718747361e-01 4.7552825814757682e-01 -1.5450849718747361e-01 4.7552825814757682e-01 0 0
2.750000000000e+10 0 0 9.8064591027276504e-16 5.0000000000000000e-01 9.8064591027276504e-16 5.0000000000000000e-01 0 0
2.760000000000e+10 0 0 1.5450849718747547e-01 4.7552825814757621e-01 1.5450849718747547e-01 4.7552825814757621e-01 0 0
2.770000000000e+10 0 0 2.9389262614623879e-01 4.0450849718747212e-01 2.9389262614623879e-01 4.0450849718747212e-01 0 0
2.780000000000e+10 0 0 4.0450849718747584e-01 2.9389262614623363e-01 4.0450849718747584e-01 2.9389262614623363e-01 0 0
2.790000000000e+10 0 0 4.7552825814757599e-01 1.5450849718747617e-01 4.7552825814757599e-01 1.5450849718747617e-01 0 0
2.800000000000e+10 0 0 5.0000000000000000e-01 1.7145055188062944e-15 5.0000000000000000e-01 1.7145055188062944e-15 0 0
2.810000000000e+10 0 0 4.7552825814757704e-01 -1.5450849718747292e-01 4.7552825814757704e-01 -1.5450849718747292e-01 0 0
2.820000000000e+10 0 0 4.0450849718747367e-01 -2.9389262614623662e-01 4.0450849718747367e-01 -2.9389262614623662e-01 0 0
2.830000000000e+10 0 0 2.9389262614623579e-01 -4.0450849718747428e-01 2.9389262614623579e-01 -4.0450849718747428e-01 0 0
2.840000000000e+10 0 0 1.5450849718747198e-01 -4.7552825814757732e-01 1.5450849718747198e-01 -4.7552825814757732e-01 0 0
2.850000000000e+10 0 0 4.4096569478853539e-15 -5.0000000000000000e-01 4.4096569478853539e-15 -5.0000000000000000e-01 0 0
2.860000000000e+10 0 0 -1.5450849718747037e-01 -4.7552825814757788e-01 -1.5450849718747037e-01 -4.7552825814757788e-01 0 0
2.870000000000e+10 0 0 -2.9389262614624018e-01 -4.0450849718747112e-01 -2.9389262614624018e-01 -4.0450849718747112e-01 0 0
2.880000000000e+10 0 0 -4.0450849718747683e-01 -2.9389262614623224e-01 -4.0450849718747683e-01 -2.9389262614623224e-01 0 0
2.890000000000e+10 0 0 -4.7552825814757871e-01 -1.5450849718746779e-01 -4.7552825814757871e-01 -1.5450849718746779e-01 0 0
2.900000000000e+10 0 0 -5.0000000000000000e-01 6.1898063658835771e-19 -5.0000000000000000e-01 6.1898063658835771e-19 0 0
2.910000000000e+10 0 0 -4.7552825814757649e-01 1.5450849718747456e-01 -4.7552825814757649e-01 1.5450849718747456e-01 0 0
2.920000000000e+10 0 0 -4.0450849718747267e-01 2.9389262614623801e-01 -4.0450849718747267e-01 2.9389262614623801e-01 0 0
2.930000000000e+10 0 0 -2.9389262614623440e-01 4.0450849718747528e-01 -2.9389262614623440e-01 4.0450849718747528e-01 0 0
2.940000000000e+10 0 0 -1.5450849718747037e-01 4.7552825814757788e-01 -1.5450849718747037e-01 4.7552825814757788e-01 0 0
2.950000000000e+10 0 0 -2.6945324484424710e-15 5.0000000000000000e-01 -2.6945324484424710e-15 5.0000000000000000e-01 0 0
2.960000000000e+10 0 0 1.5450849718747198e-01 4.7552825814757732e-01 1.5450849718747198e-01 4.7552825814757732e-01 0 0
2.970000000000e+10 0 0 2.9389262614623579e-01 4.0450849718747423e-01 2.9389262614623579e-01 4.0450849718747423e-01 0 0
2.980000000000e+10 0 0 4.0450849718747367e-01 2.9389262614623662e-01 4.0450849718747367e-01 2.9389262614623662e-01 0 0
2.990000000000e+10 0 0 4.7552825814757704e-01 1.5450849718747292e-01 4.7552825814757704e-01 1.5450849718747292e-01 0 0
3.000000000000e+10 0 0 5.0000000000000000e-01 5.3896838775215305e-15 5.0000000000000000e-01 5.3896838775215305e-15 0 0
3.010000000000e+10 0 0 4.7552825814757599e-01 -1.5450849718747620e-01 4.7552825814757599e-01 -1.5450849718747620e-01 0 0
3.020000000000e+10 0 0 4.0450849718747167e-01 -2.9389262614623940e-01 4.0450849718747167e-01 -2.9389262614623940e-01 0 0
3.030000000000e+10 0 0 2.9389262614623302e-01 -4.0450849718747628e-01 2.9389262614623302e-01 -4.0450849718747628e-01 0 0
3.040000000000e+10 0 0 1.5450849718746873e-01 -4.7552825814757843e-01 1.5450849718746873e-01 -4.7552825814757843e-01 0 0
3.050000000000e+10 0 0 -6.1260194086014137e-15 -5.0000000000000000e-01 -6.1260194086014137e-15 -5.0000000000000000e-01 0 0
3.060000000000e+10 0 0 -1.5450849718747361e-01 -4.7552825814757682e-01 -1.5450849718747361e-01 -4.7552825814757682e-01 0 0
3.070000000000e+10 0 0 -2.9389262614623718e-01 -4.0450849718747328e-01 -2.9389262614623718e-01 -4.0450849718747328e-01 0 0
3.080000000000e+10 0 0 -4.0450849718747467e-01 -2.9389262614623524e-01 -4.0450849718747467e-01 -2.9389262614623524e-01 0 0
3.090000000000e+10 0 0 -4.7552825814757760e-01 -1.5450849718747128e-01 -4.7552825814757760e-01 -1.5450849718747128e-01 0 0
3.100000000000e+10 0 0 -5.0000000000000000e-01 3.4308679795223538e-15 -5.0000000000000000e-01 3.4308679795223538e-15 0 0
3.110000000000e+10 0 0 -4.7552825814757765e-01 1.5450849718747106e-01 -4.7552825814757765e-01 1.5450849718747106e-01 0 0
3.120000000000e+10 0 0 -4.0450849718747484e-01 2.9389262614623501e-01 -4.0450849718747484e-01 2.9389262614623501e-01 0 0
3.130000000000e+10 0 0 -2.9389262614623740e-01 4.0450849718747312e-01 -2.9389262614623740e-01 4.0450849718747312e-01 0 0
3.140000000000e+10 0 0 -1.5450849718747386e-01 4.7552825814757677e-01 -1.5450849718747386e-01 4.7552825814757677e-01 0 0
3.150000000000e+10 0 0 7.3571655044329445e-16 5.0000000000000000e-01 7.3571655044329445e-16 5.0000000000000000e-01 0 0
3.160000000000e+10 0 0 1.5450849718747525e-01 4.7552825814757627e-01 1.5450849718747525e-01 4.7552825814757627e-01 0 0
3.170000000000e+10 0 0 2.9389262614623857e-01 4.0450849718747223e-01 2.9389262614623857e-01 4.0450849718747223e-01 0 0
3.180000000000e+10 0 0 4.0450849718747572e-01 2.9389262614623385e-01 4.0450849718747572e-01 2.9389262614623385e-01 0 0
3.190000000000e+10 0 0 4.7552825814757810e-01 1.5450849718746965e-01 4.7552825814757810e-01 1.5450849718746965e-01 0 0
3.200000000000e+10 0 0 5.0000000000000000e-01 -5.1459924789652371e-15 5.0000000000000000e-01 -5.1459924789652371e-15 0 0
3.210000000000e+10 0 0 4.7552825814757710e-01 -1.5450849718747270e-01 4.7552825814757710e-01 -1.5450849718747270e-01 0 0
3.220000000000e+10 0 0 4.0450849718747384e-01 -2.9389262614623640e-01 4.0450849718747384e-01 -2.9389262614623640e-01 0 0
3.230000000000e+10 0 0 2.9389262614623601e-01 -4.0450849718747411e-01 2.9389262614623601e-01 -4.0450849718747411e-01 0 0
3.240000000000e+10 0 0 1.5450849718747223e-01 -4.7552825814757727e-01 1.5450849718747223e-01 -4.7552825814757727e-01 0 0
3.250000000000e+10 0 0 -2.4508410498861772e-15 -5.0000000000000000e-01 -2.4508410498861772e-15 -5.0000000000000000e-01 0 0
3.260000000000e+10 0 0 -1.5450849718747012e-01 -4.7552825814757793e-01 -1.5450849718747012e-01 -4.7552825814757793e-01 0 0
3.270000000000e+10 0 0 -2.9389262614623424e-01 -4.0450849718747539e-01 -2.9389262614623424e-01 -4.0450849718747539e-01 0 0
3.280000000000e+10 0 0 -4.0450849718747250e-01 -2.9389262614623818e-01 -4.0450849718747250e-01 -2.9389262614623818e-01 0 0
3.290000000000e+10 0 0 -4.7552825814757643e-01 -1.5450849718747478e-01 -4.7552825814757643e-01 -1.5450849718747478e-01 0 0
3.300000000000e+10 0 0 -5.0000000000000000e-01 -2.4431037919288229e-16 -5.0000000000000000e-01 -2.4431037919288229e-16 0 0
3.310000000000e+10 0 0 -4.7552825814757438e-01 1.5450849718748108e-01 -4.7552825814757438e-01 1.5450849718748108e-01 0 0
3.320000000000e+10 0 0 -4.0450849718747284e-01 2.9389262614623779e-01 -4.0450849718747284e-01 2.9389262614623779e-01 0 0
3.330000000000e+10 0 0 -2.9389262614623463e-01 4.0450849718747511e-01 -2.9389262614623463e-01 4.0450849718747511e-01 0 0
3.340000000000e+10 0 0 -1.5450849718747059e-01 4.7552825814757782e-01 -1.5450849718747059e-01 4.7552825814757782e-01 0 0
3.350000000000e+10 0 0 4.1659655493290597e-15 5.0000000000000000e-01 4.1659655493290597e-15 5.0000000000000000e-01 0 0
3.360000000000e+10 0 0 1.5450849718747850e-01 4.7552825814757521e-01 1.5450849718747850e-01 4.7552825814757521e-01 0 0
3.370000000000e+10 0 0 2.9389262614623562e-01 4.0450849718747439e-01 2.9389262614623562e-01 4.0450849718747439e-01 0 0
3.380000000000e+10 0 0 4.0450849718747356e-01 2.9389262614623679e-01 4.0450849718747356e-01 2.9389262614623679e-01 0 0
3.390000000000e+10 0 0 4.7552825814757699e-01 1.5450849718747314e-01 4.7552825814757699e-01 1.5450849718747314e-01 0 0
3.400000000000e+10 0 0 5.0000000000000000e-01 -1.4708141202500005e-15 5.0000000000000000e-01 -1.4708141202500005e-15 0 0
3.410000000000e+10 0 0 4.7552825814757604e-01 -1.5450849718747595e-01 4.7552825814757604e-01 -1.5450849718747595e-01 0 0
3.420000000000e+10 0 0 4.0450849718747600e-01 -2.9389262614623346e-01 4.0450849718747600e-01 -2.9389262614623346e-01 0 0
3.430000000000e+10 0 0 2.9389262614623896e-01 -4.0450849718747195e-01 2.9389262614623896e-01 -4.0450849718747195e-01 0 0
3.440000000000e+10 0 0 1.5450849718747572e-01 -4.7552825814757615e-01 1.5450849718747572e-01 -4.7552825814757615e-01 0 0
3.450000000000e+10 0 0 -5.8810900487719426e-15 -5.0000000000000000e-01 -5.8810900487719426e-15 -5.0000000000000000e-01 0 0
3.460000000000e+10 0 0 -1.5450849718748014e-01 -4.7552825814757471e-01 -1.5450849718748014e-01 -4.7552825814757471e-01 0 0
3.470000000000e+10 0 0 -2.9389262614623701e-01 -4.0450849718747339e-01 -2.9389262614623701e-01 -4.0450849718747339e-01 0 0
3.480000000000e+10 0 0 -4.0450849718747456e-01 -2.9389262614623540e-01 -4.0450849718747456e-01 -2.9389262614623540e-01 0 0
3.490000000000e+10 0 0 -4.7552825814757749e-01 -1.5450849718747153e-01 -4.7552825814757749e-01 -1.5450849718747153e-01 0 0
3.500000000000e+10 0 0 -5.0000000000000000e-01 3.1859386196928831e-15 -5.0000000000000000e-01 3.1859386196928831e-15 0 0
3.510000000000e+10 0 0 -4.7552825814757554e-01 1.5450849718747758e-01 -4.7552825814757554e-01 1.5450849718747758e-01 0 0
3.520000000000e+10 0 0 -4.0450849718747500e-01 2.9389262614623479e-01 -4.0450849718747500e-01 2.9389262614623479e-01 0 0
3.530000000000e+10 0 0 -2.9389262614623757e-01 4.0450849718747295e-01 -2.9389262614623757e-01 4.0450849718747295e-01 0 0
3.540000000000e+10 0 0 -1.5450849718747409e-01 4.7552825814757665e-01 -1.5450849718747409e-01 4.7552825814757665e-01 0 0
3.550000000000e+10 0 0 4.9078719061382376e-16 5.0000000000000000e-01 4.9078719061382376e-16 5.0000000000000000e-01 0 0
3.560000000000e+10 0 0 1.5450849718747503e-01 4.7552825814757638e-01 1.5450849718747503e-01 4.7552825814757638e-01 0 0
3.570000000000e+10 0 0 2.9389262614623840e-01 4.0450849718747239e-01 2.9389262614623840e-01 4.0450849718747239e-01 0 0
3.580000000000e+10 0 0 4.0450849718747139e-01 2.9389262614623979e-01 4.0450849718747139e-01 2.9389262614623979e-01 0 0
3.590000000000e+10 0 0 4.7552825814757582e-01 1.5450849718747664e-01 4.7552825814757582e-01 1.5450849718747664e-01 0 0
3.600000000000e+10 0 0 5.0000000000000000e-01 -4.9010631191357660e-15 5.0000000000000000e-01 -4.9010631191357660e-15 0 0
3.610000000000e+10 0 0 4.7552825814757499e-01 -1.5450849718747922e-01 4.7552825814757499e-01 -1.5450849718747922e-01 0 0
3.620000000000e+10 0 0 4.0450849718746978e-01 -2.9389262614624195e-01 4.0450849718746978e-01 -2.9389262614624195e-01 0 0
3.630000000000e+10 0 0 2.9389262614623624e-01 -4.0450849718747395e-01 2.9389262614623624e-01 -4.0450849718747395e-01 0 0
3.640000000000e+10 0 0 1.5450849718747245e-01 -4.7552825814757721e-01 1.5450849718747245e-01 -4.7552825814757721e-01 0 0
3.650000000000e+10 0 0 -2.2059116900567066e-15 -5.0000000000000000e-01 -2.2059116900567066e-15 -5.0000000000000000e-01 0 0
3.660000000000e+10 0 0 -1.5450849718747664e-01 -4.7552825814757582e-01 -1.5450849718747664e-01 -4.7552825814757582e-01 0 0
3.670000000000e+10 0 0 -2.9389262614623979e-01 -4.0450849718747139e-01 -2.9389262614623979e-01 -4.0450849718747139e-01 0 0
3.680000000000e+10 0 0 -4.0450849718747239e-01 -2.9389262614623840e-01 -4.0450849718747239e-01 -2.9389262614623840e-01 0 0
3.690000000000e+10 0 0 -4.7552825814757638e-01 -1.5450849718747500e-01 -4.7552825814757638e-01 -1.5450849718747500e-01 0 0
3.700000000000e+10 0 0 -5.0000000000000000e-01 -4.8923973902235293e-16 -5.0000000000000000e-01 -4.8923973902235293e-16 0 0
3.710000000000e+10 0 0 -4.7552825814757665e-01 1.5450849718747409e-01 -4.7552825814757665e-01 1.5450849718747409e-01 0 0
3.720000000000e+10 0 0 -4.0450849718747295e-01 2.9389262614623757e-01 -4.0450849718747295e-01 2.9389262614623757e-01 0 0
3.730000000000e+10 0 0 -2.9389262614624057e-01 4.0450849718747078e-01 -2.9389262614624057e-01 4.0450849718747078e-01 0 0
3.740000000000e+10 0 0 -1.5450849718747758e-01 4.7552825814757554e-01 -1.5450849718747758e-01 4.7552825814757554e-01 0 0
3.750000000000e+10 0 0 3.9210361894995894e-15 5.0000000000000000e-01 3.9210361894995894e-15 5.0000000000000000e-01 0 0
3.760000000000e+10 0 0 1.5450849718747828e-01 4.7552825814757532e-01 1.5450849718747828e-01 4.7552825814757532e-01 0 0
3.770000000000e+10 0 0 2.9389262614624118e-01 4.0450849718747039e-01 2.9389262614624118e-01 4.0450849718747039e-01 0 0
3.780000000000e+10 0 0 4.0450849718747756e-01 2.9389262614623124e-01 4.0450849718747756e-01 2.9389262614623124e-01 0 0
3.790000000000e+10 0 0 4.7552825814757688e-01 1.5450849718747339e-01 4.7552825814757688e-01 1.5450849718747339e-01 0 0
3.800000000000e+10 0 0 5.0000000000000000e-01 -1.2258847604205300e-15 5.0000000000000000e-01 -1.2258847604205300e-15 0 0
3.810000000000e+10 0 0 4.7552825814757615e-01 -1.5450849718747572e-01 4.7552825814757615e-01 -1.5450849718747572e-01 0 0
3.820000000000e+10 0 0 4.0450849718747195e-01 -2.9389262614623901e-01 4.0450849718747195e-01 -2.9389262614623901e-01 0 0
3.830000000000e+10 0 0 2.9389262614623346e-01 -4.0450849718747600e-01 2.9389262614623346e-01 -4.0450849718747600e-01 0 0
3.840000000000e+10 0 0 1.5450849718747595e-01 -4.7552825814757604e-01 1.5450849718747595e-01 -4.7552825814757604e-01 0 0
3.850000000000e+10 0 0 1.4692666686585297e-15 -5.0000000000000000e-01 1.4692666686585297e-15 -5.0000000000000000e-01 0 0
3.860000000000e+10 0 0 -1.5450849718747314e-01 -4.7552825814757699e-01 -1.5450849718747314e-01 -4.7552825814757699e-01 0 0
3.870000000000e+10 0 0 -2.9389262614623679e-01 -4.0450849718747356e-01 -2.9389262614623679e-01 -4.0450849718747356e-01 0 0
3.880000000000e+10 0 0 -4.0450849718747439e-01 -2.9389262614623562e-01 -4.0450849718747439e-01 -2.9389262614623562e-01 0 0
3.890000000000e+10 0 0 -4.7552825814757743e-01 -1.5450849718747175e-01 -4.7552825814757743e-01 -1.5450849718747175e-01 0 0
3.900000000000e+10 0 0 -5.0000000000000000e-01 2.9410092598634128e-15 -5.0000000000000000e-01 2.9410092598634128e-15 0 0
3.910000000000e+10 0 0 -4.7552825814757560e-01 1.5450849718747733e-01 -4.7552825814757560e-01 1.5450849718747733e-01 0 0
3.920000000000e+10 0 0 -4.0450849718747095e-01 2.9389262614624034e-01 -4.0450849718747095e-01 2.9389262614624034e-01 0 0
3.930000000000e+10 0 0 -2.9389262614623202e-01 4.0450849718747700e-01 -2.9389262614623202e-01 4.0450849718747700e-01 0 0
3.940000000000e+10 0 0 -1.5450849718747431e-01 4.7552825814757660e-01 -1.5450849718747431e-01 4.7552825814757660e-01 0 0
3.950000000000e+10 0 0 2.4585783078435317e-16 5.0000000000000000e-01 2.4585783078435317e-16 5.0000000000000000e-01 0 0
3.960000000000e+10 0 0 1.5450849718747478e-01 4.7552825814757643e-01 1.5450849718747478e-01 4.7552825814757643e-01 0 0
3.970000000000e+10 0 0 2.9389262614623818e-01 4.0450849718747250e-01 2.9389262614623818e-01 4.0450849718747250e-01 0 0
3.980000000000e+10 0 0 4.0450849718747539e-01 2.9389262614623424e-01 4.0450849718747539e-01 2.9389262614623424e-01 0 0
3.990000000000e+10 0 0 4.7552825814757577e-01 1.5450849718747689e-01 4.7552825814757577e-01 1.5450849718747689e-01 0 0
4.000000000000e+10 0 0 5.0000000000000000e-01 2.4492935982947065e-15 5.0000000000000000e-01 2.4492935982947065e-15 0 0
4.010000000000e+10 0 0 4.7552825814757727e-01 -1.5450849718747223e-01 4.7552825814757727e-01 -1.5450849718747223e-01 0 0
4.020000000000e+10 0 0 4.0450849718747411e-01 -2.9389262614623601e-01 4.0450849718747411e-01 -2.9389262614623601e-01 0 0
4.030000000000e+10 0 0 2.9389262614623640e-01 -4.0450849718747384e-01 2.9389262614623640e-01 -4.0450849718747384e-01 0 0
4.040000000000e+10 0 0 1.5450849718746593e-01 -4.7552825814757932e-01 1.5450849718746593e-01 -4.7552825814757932e-01 0 0
4.050000000000e+10 0 0 -1.9609823302272359e-15 -5.0000000000000000e-01 -1.9609823302272359e-15 -5.0000000000000000e-01 0 0
4.060000000000e+10 0 0 -1.5450849718747642e-01 -4.7552825814757593e-01 -1.5450849718747642e-01 -4.7552825814757593e-01 0 0
4.070000000000e+10 0 0 -2.9389262614623957e-01 -4.0450849718747151e-01 -2.9389262614623957e-01 -4.0450849718747151e-01 0 0
4.080000000000e+10 0 0 -4.0450849718747639e-01 -2.9389262614623285e-01 -4.0450849718747639e-01 -2.9389262614623285e-01 0 0
4.090000000000e+10 0 0 -4.7552825814757627e-01 -1.5450849718747525e-01 -4.7552825814757627e-01 -1.5450849718747525e-01 0 0
4.100000000000e+10 0 0 -5.0000000000000000e-01 6.3712582587491786e-15 -5.0000000000000000e-01 6.3712582587491786e-15 0 0
4.110000000000e+10 0 0 -4.7552825814757677e-01 1.5450849718747386e-01 -4.7552825814757677e-01 1.5450849718747386e-01 0 0
4.120000000000e+10 0 0 -4.0450849718747728e-01 2.9389262614623163e-01 -4.0450849718747728e-01 2.9389262614623163e-01 0 0
4.130000000000e+10 0 0 -2.9389262614623501e-01 4.0450849718747484e-01 -2.9389262614623501e-01 4.0450849718747484e-01 0 0
4.140000000000e+10 0 0 -1.5450849718747781e-01 4.7552825814757543e-01 -1.5450849718747781e-01 4.7552825814757543e-01 0 0
4.150000000000e+10 0 0 3.6761068296701191e-15 5.0000000000000000e-01 3.6761068296701191e-15 5.0000000000000000e-01 0 0
4.160000000000e+10 0 0 1.5450849718747128e-01 4.7552825814757760e-01 1.5450849718747128e-01 4.7552825814757760e-01 0 0
4.170000000000e+10 0 0 2.9389262614622946e-01 4.0450849718747889e-01 2.9389262614622946e-01 4.0450849718747889e-01 0 0
4.180000000000e+10 0 0 4.0450849718747328e-01 2.9389262614623718e-01 4.0450849718747328e-01 2.9389262614623718e-01 0 0
4.190000000000e+10 0 0 4.7552825814757899e-01 1.5450849718746687e-01 4.7552825814757899e-01 1.5450849718746687e-01 0 0
4.200000000000e+10 0 0 5.0000000000000000e-01 -9.8095540059105927e-16 5.0000000000000000e-01 -9.8095540059105927e-16 0 0
4.210000000000e+10 0 0 4.7552825814757399e-01 -1.5450849718748225e-01 4.7552825814757399e-01 -1.5450849718748225e-01 0 0
4.220000000000e+10 0 0 4.0450849718747212e-01 -2.9389262614623879e-01 4.0450849718747212e-01 -2.9389262614623879e-01 0 0
4.230000000000e+10 0 0 2.9389262614623940e-01 -4.0450849718747167e-01 2.9389262614623940e-01 -4.0450849718747167e-01 0 0
4.240000000000e+10 0 0 1.5450849718746942e-01 -4.7552825814757815e-01 1.5450849718746942e-01 -4.7552825814757815e-01 0 0
4.250000000000e+10 0 0 1.7141960284880002e-15 -5.0000000000000000e-01 1.7141960284880002e-15 -5.0000000000000000e-01 0 0
4.260000000000e+10 0 0 -1.5450849718747967e-01 -4.7552825814757482e-01 -1.5450849718747967e-01 -4.7552825814757482e-01 0 0
4.270000000000e+10 0 0 -2.9389262614623662e-01 -4.0450849718747367e-01 -2.9389262614623662e-01 -4.0450849718747367e-01 0 0
4.280000000000e+10 0 0 -4.0450849718747006e-01 -2.9389262614624156e-01 -4.0450849718747006e-01 -2.9389262614624156e-01 0 0
4.290000000000e+10 0 0 -4.7552825814757732e-01 -1.5450849718747198e-01 -4.7552825814757732e-01 -1.5450849718747198e-01 0 0
4.300000000000e+10 0 0 -5.0000000000000000e-01 -4.4093474575670601e-15 -5.0000000000000000e-01 -4.4093474575670601e-15 0 0
4.310000000000e+10 0 0 -4.7552825814757566e-01 1.5450849718747711e-01 -4.7552825814757566e-01 1.5450849718747711e-01 0 0
4.320000000000e+10 0 0 -4.0450849718747528e-01 2.9389262614623440e-01 -4.0450849718747528e-01 2.9389262614623440e-01 0 0
4.330000000000e+10 0 0 -2.9389262614623224e-01 4.0450849718747683e-01 -2.9389262614623224e-01 4.0450849718747683e-01 0 0
4.340000000000e+10 0 0 -1.5450849718747456e-01 4.7552825814757649e-01 -1.5450849718747456e-01 4.7552825814757649e-01 0 0
4.350000000000e+10 0 0 7.1063558285558849e-15 5.0000000000000000e-01 7.1063558285558849e-15 5.0000000000000000e-01 0 0
4.360000000000e+10 0 0 1.5450849718747456e-01 4.7552825814757649e-01 1.5450849718747456e-01 4.7552825814757649e-01 0 0
4.370000000000e+10 0 0 2.9389262614624373e-01 4.0450849718746851e-01 2.9389262614624373e-01 4.0450849718746851e-01 0 0
4.380000000000e+10 0 0 4.0450849718747528e-01 2.9389262614623440e-01 4.0450849718747528e-01 2.9389262614623440e-01 0 0
4.390000000000e+10 0 0 4.7552825814757566e-01 1.5450849718747711e-01 4.7552825814757566e-01 1.5450849718747711e-01 0 0
4.400000000000e+10 0 0 5.0000000000000000e-01 -4.4112043994768247e-15 5.0000000000000000e-01 -4.4112043994768247e-15 0 0
4.410000000000e+10 0 0 4.7552825814757732e-01 -1.5450849718747198e-01 4.7552825814757732e-01 -1.5450849718747198e-01 0 0
4.420000000000e+10 0 0 4.0450849718747006e-01 -2.9389262614624156e-01 4.0450849718747006e-01 -2.9389262614624156e-01 0 0
4.430000000000e+10 0 0 2.9389262614623662e-01 -4.0450849718747367e-01 2.9389262614623662e-01 -4.0450849718747367e-01 0 0
4.440000000000e+10 0 0 1.5450849718747967e-01 -4.7552825814757482e-01 1.5450849718747967e-01 -4.7552825814757482e-01 0 0
4.450000000000e+10 0 0 -1.7160529703977654e-15 -5.0000000000000000e-01 -1.7160529703977654e-15 -5.0000000000000000e-01 0 0
4.460000000000e+10 0 0 -1.5450849718746942e-01 -4.7552825814757815e-01 -1.5450849718746942e-01 -4.7552825814757815e-01 0 0
4.470000000000e+10 0 0 -2.9389262614623940e-01 -4.0450849718747167e-01 -2.9389262614623940e-01 -4.0450849718747167e-01 0 0
4.480000000000e+10 0 0 -4.0450849718747212e-01 -2.9389262614623879e-01 -4.0450849718747212e-01 -2.9389262614623879e-01 0 0
4.490000000000e+10 0 0 -4.7552825814757399e-01 -1.5450849718748225e-01 -4.7552825814757399e-01 -1.5450849718748225e-01 0 0
4.500000000000e+10 0 0 -5.0000000000000000e-01 -9.7909845868129412e-16 -5.0000000000000000e-01 -9.7909845868129412e-16 0 0
4.510000000000e+10 0 0 -4.7552825814757899e-01 1.5450849718746687e-01 -4.7552825814757899e-01 1.5450849718746687e-01 0 0
4.520000000000e+10 0 0 -4.0450849718747328e-01 2.9389262614623718e-01 -4.0450849718747328e-01 2.9389262614623718e-01 0 0
4.530000000000e+10 0 0 -2.9389262614624095e-01 4.0450849718747051e-01 -2.9389262614624095e-01 4.0450849718747051e-01 0 0
4.540000000000e+10 0 0 -1.5450849718748480e-01 4.7552825814757316e-01 -1.5450849718748480e-01 4.7552825814757316e-01 0 0
4.550000000000e+10 0 0 1.0536604827441651e-14 5.0000000000000000e-01 1.0536604827441651e-14 5.0000000000000000e-01 0 0
4.560000000000e+10 0 0 1.5450849718747781e-01 4.7552825814757543e-01 1.5450849718747781e-01 4.7552825814757543e-01 0 0
4.570000000000e+10 0 0 2.9389262614624651e-01 4.0450849718746651e-01 2.9389262614624651e-01 4.0450849718746651e-01 0 0
4.580000000000e+10 0 0 4.0450849718747728e-01 2.9389262614623163e-01 4.0450849718747728e-01 2.9389262614623163e-01 0 0
4.590000000000e+10 0 0 4.7552825814758115e-01 1.5450849718746035e-01 4.7552825814758115e-01 1.5450849718746035e-01 0 0
4.600000000000e+10 0 0 5.0000000000000000e-01 -7.8414533983625912e-15 5.0000000000000000e-01 -7.8414533983625912e-15 0 0
4.610000000000e+10 0 0 4.7552825814757627e-01 -1.5450849718747525e-01 4.7552825814757627e-01 -1.5450849718747525e-01 0 0
4.620000000000e+10 0 0 4.0450849718746806e-01 -2.9389262614624434e-01 4.0450849718746806e-01 -2.9389262614624434e-01 0 0
4.630000000000e+10 0 0 2.9389262614623385e-01 -4.0450849718747572e-01 2.9389262614623385e-01 -4.0450849718747572e-01 0 0
4.640000000000e+10 0 0 1.5450849718746290e-01 -4.7552825814758032e-01 1.5450849718746290e-01 -4.7552825814758032e-01 0 0
4.650000000000e+10 0 0 -5.1463019692835310e-15 -5.0000000000000000e-01 -5.1463019692835310e-15 -5.0000000000000000e-01 0 0
4.660000000000e+10 0 0 -1.5450849718747270e-01 -4.7552825814757710e-01 -1.5450849718747270e-01 -4.7552825814757710e-01 0 0
4.670000000000e+10 0 0 -2.9389262614624218e-01 -4.0450849718746967e-01 -2.9389262614624218e-01 -4.0450849718746967e-01 0 0
4.680000000000e+10 0 0 -4.0450849718747411e-01 -2.9389262614623601e-01 -4.0450849718747411e-01 -2.9389262614623601e-01 0 0
4.690000000000e+10 0 0 -4.7552825814757949e-01 -1.5450849718746545e-01 -4.7552825814757949e-01 -1.5450849718746545e-01 0 0
4.700000000000e+10 0 0 -5.0000000000000000e-01 2.4511505402044715e-15 -5.0000000000000000e-01 2.4511505402044715e-15 0 0
4.710000000000e+10 0 0 -4.7552825814757793e-01 1.5450849718747012e-01 -4.7552825814757793e-01 1.5450849718747012e-01 0 0
4.720000000000e+10 0 0 -4.0450849718747123e-01 2.9389262614623995e-01 -4.0450849718747123e-01 2.9389262614623995e-01 0 0
4.730000000000e+10 0 0 -2.9389262614623818e-01 4.0450849718747250e-01 -2.9389262614623818e-01 4.0450849718747250e-01 0 0
4.740000000000e+10 0 0 -1.5450849718746804e-01 4.7552825814757865e-01 -1.5450849718746804e-01 4.7552825814757865e-01 0 0
4.750000000000e+10 0 0 -2.4400088887458811e-16 5.0000000000000000e-01 -2.4400088887458811e-16 5.0000000000000000e-01 0 0
4.760000000000e+10 0 0 1.5450849718746756e-01 4.7552825814757876e-01 1.5450849718746756e-01 4.7552825814757876e-01 0 0
4.770000000000e+10 0 0 2.9389262614623779e-01 4.0450849718747284e-01 2.9389262614623779e-01 4.0450849718747284e-01 0 0
4.780000000000e+10 0 0 4.0450849718747095e-01 2.9389262614624034e-01 4.0450849718747095e-01 2.9389262614624034e-01 0 0
4.790000000000e+10 0 0 4.7552825814757782e-01 1.5450849718747059e-01 4.7552825814757782e-01 1.5450849718747059e-01 0 0
4.800000000000e+10 0 0 5.0000000000000000e-01 2.9391523179536475e-15 5.0000000000000000e-01 2.9391523179536475e-15 0 0
4.810000000000e+10 0 0 4.7552825814757960e-01 -1.5450849718746501e-01 4.7552825814757960e-01 -1.5450849718746501e-01 0 0
4.820000000000e+10 0 0 4.0450849718747439e-01 -2.9389262614623562e-01 4.0450849718747439e-01 -2.9389262614623562e-01 0 0
4.830000000000e+10 0 0 2.9389262614624256e-01 -4.0450849718746934e-01 2.9389262614624256e-01 -4.0450849718746934e-01 0 0
4.840000000000e+10 0 0 1.5450849718747314e-01 -4.7552825814757699e-01 1.5450849718747314e-01 -4.7552825814757699e-01 0 0
4.850000000000e+10 0 0 -8.5765509681692959e-15 -5.0000000000000000e-01 -8.5765509681692959e-15 -5.0000000000000000e-01 0 0
4.860000000000e+10 0 0 -1.5450849718747595e-01 -4.7552825814757604e-01 -1.5450849718747595e-01 -4.7552825814757604e-01 0 0
4.870000000000e+10 0 0 -2.9389262614624495e-01 -4.0450849718746762e-01 -2.9389262614624495e-01 -4.0450849718746762e-01 0 0
4.880000000000e+10 0 0 -4.0450849718747611e-01 -2.9389262614623324e-01 -4.0450849718747611e-01 -2.9389262614623324e-01 0 0
4.890000000000e+10 0 0 -4.7552825814758054e-01 -1.5450849718746221e-01 -4.7552825814758054e-01 -1.5450849718746221e-01 0 0
4.900000000000e+10 0 0 -5.0000000000000000e-01 5.8813995390902372e-15 -5.0000000000000000e-01 5.8813995390902372e-15 0 0
4.910000000000e+10 0 0 -4.7552825814757688e-01 1.5450849718747339e-01 -4.7552825814757688e-01 1.5450849718747339e-01 0 0
4.920000000000e+10 0 0 -4.0450849718746923e-01 2.9389262614624273e-01 -4.0450849718746923e-01 2.9389262614624273e-01 0 0
4.930000000000e+10 0 0 -2.9389262614623540e-01 4.0450849718747456e-01 -2.9389262614623540e-01 4.0450849718747456e-01 0 0
4.940000000000e+10 0 0 -1.5450849718746476e-01 4.7552825814757971e-01 -1.5450849718746476e-01 4.7552825814757971e-01 0 0
4.950000000000e+10 0 0 3.1862481100111774e-15 5.0000000000000000e-01 3.1862481100111774e-15 5.0000000000000000e-01 0 0
4.960000000000e+10 0 0 1.5450849718747081e-01 4.7552825814757771e-01 1.5450849718747081e-01 4.7552825814757771e-01 0 0
4.970000000000e+10 0 0 2.9389262614624057e-01 4.0450849718747078e-01 2.9389262614624057e-01 4.0450849718747078e-01 0 0
4.980000000000e+10 0 0 4.0450849718747295e-01 2.9389262614623757e-01 4.0450849718747295e-01 2.9389262614623757e-01 0 0
4.990000000000e+10 0 0 4.7552825814757888e-01 1.5450849718746731e-01 4.7552825814757888e-01 1.5450849718746731e-01 0 0
5.000000000000e+10 0 0 5.0000000000000000e-01 -4.9109668093211799e-16 5.0000000000000000e-01 -4.9109668093211799e-16 0 0
5.010000000000e+10 0 0 4.7552825814757854e-01 -1.5450849718746826e-01 4.7552825814757854e-01 -1.5450849718746826e-01 0 0
5.020000000000e+10 0 0 4.0450849718747239e-01 -2.9389262614623840e-01 4.0450849718747239e-01 -2.9389262614623840e-01 0 0
5.030000000000e+10 0 0 2.9389262614623979e-01 -4.0450849718747139e-01 2.9389262614623979e-01 -4.0450849718747139e-01 0 0
5.040000000000e+10 0 0 1.5450849718746990e-01 -4.7552825814757804e-01 1.5450849718746990e-01 -4.7552825814757804e-01 0 0
5.050000000000e+10 0 0 2.2040547481469416e-15 -5.0000000000000000e-01 2.2040547481469416e-15 -5.0000000000000000e-01 0 0
5.060000000000e+10 0 0 -1.5450849718746570e-01 -4.7552825814757937e-01 -1.5450849718746570e-01 -4.7552825814757937e-01 0 0
5.070000000000e+10 0 0 -2.9389262614623624e-01 -4.0450849718747395e-01 -2.9389262614623624e-01 -4.0450849718747395e-01 0 0
5.080000000000e+10 0 0 -4.0450849718746978e-01 -2.9389262614624195e-01 -4.0450849718746978e-01 -2.9389262614624195e-01 0 0
5.090000000000e+10 0 0 -4.7552825814757721e-01 -1.5450849718747245e-01 -4.7552825814757721e-01 -1.5450849718747245e-01 0 0
5.100000000000e+10 0 0 -5.0000000000000000e-01 -4.8992061772260007e-15 -5.0000000000000000e-01 -4.8992061772260007e-15 0 0
5.110000000000e+10 0 0 -4.7552825814758021e-01 1.5450849718746312e-01 -4.7552825814758021e-01 1.5450849718746312e-01 0 0
5.120000000000e+10 0 0 -4.0450849718747556e-01 2.9389262614623402e-01 -4.0450849718747556e-01 2.9389262614623402e-01 0 0
5.130000000000e+10 0 0 -2.9389262614624412e-01 4.0450849718746823e-01 -2.9389262614624412e-01 4.0450849718746823e-01 0 0
5.140000000000e+10 0 0 -1.5450849718746151e-01 4.7552825814758076e-01 -1.5450849718746151e-01 4.7552825814758076e-01 0 0
5.150000000000e+10 0 0 6.6164971088969428e-15 5.0000000000000000e-01 6.6164971088969428e-15 5.0000000000000000e-01 0 0
5.160000000000e+10 0 0 1.5450849718748760e-01 4.7552825814757227e-01 1.5450849718748760e-01 4.7552825814757227e-01 0 0
5.170000000000e+10 0 0 2.9389262614624334e-01 4.0450849718746879e-01 2.9389262614624334e-01 4.0450849718746879e-01 0 0
5.180000000000e+10 0 0 4.0450849718747500e-01 2.9389262614623479e-01 4.0450849718747500e-01 2.9389262614623479e-01 0 0
5.190000000000e+10 0 0 4.7552825814757993e-01 1.5450849718746407e-01 4.7552825814757993e-01 1.5450849718746407e-01 0 0
5.200000000000e+10 0 0 5.0000000000000000e-01 -3.9213456798178833e-15 5.0000000000000000e-01 -3.9213456798178833e-15 0 0
5.210000000000e+10 0 0 4.7552825814757310e-01 -1.5450849718748505e-01 4.7552825814757310e-01 -1.5450849718748505e-01 0 0
5.220000000000e+10 0 0 4.0450849718747039e-01 -2.9389262614624118e-01 4.0450849718747039e-01 -2.9389262614624118e-01 0 0
5.230000000000e+10 0 0 2.9389262614623701e-01 -4.0450849718747339e-01 2.9389262614623701e-01 -4.0450849718747339e-01 0 0
5.240000000000e+10 0 0 1.5450849718746662e-01 -4.7552825814757910e-01 1.5450849718746662e-01 -4.7552825814757910e-01 0 0
5.250000000000e+10 0 0 -1.2261942507388240e-15 -5.0000000000000000e-01 -1.2261942507388240e-15 -5.0000000000000000e-01 0 0
5.260000000000e+10 0 0 -1.5450849718748247e-01 -4.7552825814757393e-01 -1.5450849718748247e-01 -4.7552825814757393e-01 0 0
5.270000000000e+10 0 0 -2.9389262614623901e-01 -4.0450849718747195e-01 -2.9389262614623901e-01 -4.0450849718747195e-01 0 0
5.280000000000e+10 0 0 -4.0450849718747184e-01 -2.9389262614623918e-01 -4.0450849718747184e-01 -2.9389262614623918e-01 0 0
5.290000000000e+10 0 0 -4.7552825814757826e-01 -1.5450849718746920e-01 -4.7552825814757826e-01 -1.5450849718746920e-01 0 0
5.300000000000e+10 0 0 -5.0000000000000000e-01 -1.4689571783402355e-15 -5.0000000000000000e-01 -1.4689571783402355e-15 0 0
5.310000000000e+10 0 0 -4.7552825814757477e-01 1.5450849718747992e-01 -4.7552825814757477e-01 1.5450849718747992e-01 0 0
5.320000000000e+10 0 0 -4.0450849718747356e-01 2.9389262614623679e-01 -4.0450849718747356e-01 2.9389262614623679e-01 0 0
5.330000000000e+10 0 0 -2.9389262614624134e-01 4.0450849718747023e-01 -2.9389262614624134e-01 4.0450849718747023e-01 0 0
5.340000000000e+10 0 0 -1.5450849718747175e-01 4.7552825814757743e-01 -1.5450849718747175e-01 4.7552825814757743e-01 0 0
5.350000000000e+10 0 0 -4.1641086074192952e-15 5.0000000000000000e-01 -4.1641086074192952e-15 5.0000000000000000e-01 0 0
5.360000000000e+10 0 0 1.5450849718747736e-01 4.7552825814757560e-01 1.5450849718747736e-01 4.7552825814757560e-01 0 0
5.370000000000e+10 0 0 2.9389262614623463e-01 4.0450849718747511e-01 2.9389262614623463e-01 4.0450849718747511e-01 0 0
5.380000000000e+10 0 0 4.0450849718746867e-01 2.9389262614624356e-01 4.0450849718746867e-01 2.9389262614624356e-01 0 0
5.390000000000e+10 0 0 4.7552825814757660e-01 1.5450849718747431e-01 4.7552825814757660e-01 1.5450849718747431e-01 0 0
5.400000000000e+10 0 0 5.0000000000000000e-01 6.8592600364983547e-15 5.0000000000000000e-01 6.8592600364983547e-15 0 0
5.410000000000e+10 0 0 4.7552825814757643e-01 -1.5450849718747478e-01 4.7552825814757643e-01 -1.5450849718747478e-01 0 0
5.420000000000e+10 0 0 4.0450849718747672e-01 -2.9389262614623246e-01 4.0450849718747672e-01 -2.9389262614623246e-01 0 0
5.430000000000e+10 0 0 2.9389262614623424e-01 -4.0450849718747539e-01 2.9389262614623424e-01 -4.0450849718747539e-01 0 0
5.440000000000e+10 0 0 1.5450849718746337e-01 -4.7552825814758015e-01 1.5450849718746337e-01 -4.7552825814758015e-01 0 0
5.450000000000e+10 0 0 -4.6564432496245896e-15 -5.0000000000000000e-01 -4.6564432496245896e-15 -5.0000000000000000e-01 0 0
5.460000000000e+10 0 0 -1.5450849718748574e-01 -4.7552825814757288e-01 -1.5450849718748574e-01 -4.7552825814757288e-01 0 0
5.470000000000e+10 0 0 -2.9389262614624179e-01 -4.0450849718746995e-01 -2.9389262614624179e-01 -4.0450849718746995e-01 0 0
5.480000000000e+10 0 0 -4.0450849718747384e-01 -2.9389262614623640e-01 -4.0450849718747384e-01 -2.9389262614623640e-01 0 0
5.490000000000e+10 0 0 -4.7552825814757932e-01 -1.5450849718746593e-01 -4.7552825814757932e-01 -1.5450849718746593e-01 0 0
5.500000000000e+10 0 0 -5.0000000000000000e-01 1.9612918205455301e-15 -5.0000000000000000e-01 1.9612918205455301e-15 0 0
5.510000000000e+10 0 0 -4.7552825814757371e-01 1.5450849718748316e-01 -4.7552825814757371e-01 1.5450849718748316e-01 0 0
5.520000000000e+10 0 0 -4.0450849718747151e-01 2.9389262614623957e-01 -4.0450849718747151e-01 2.9389262614623957e-01 0 0
5.530000000000e+10 0 0 -2.9389262614623857e-01 4.0450849718747223e-01 -2.9389262614623857e-01 4.0450849718747223e-01 0 0
5.540000000000e+10 0 0 -1.5450849718746848e-01 4.7552825814757849e-01 -1.5450849718746848e-01 4.7552825814757849e-01 0 0
5.550000000000e+10 0 0 -7.3385960853352940e-16 5.0000000000000000e-01 -7.3385960853352940e-16 5.0000000000000000e-01 0 0
5.560000000000e+10 0 0 1.5450849718748061e-01 4.7552825814757455e-01 1.5450849718748061e-01 4.7552825814757455e-01 0 0
5.570000000000e+10 0 0 2.9389262614623740e-01 4.0450849718747312e-01 2.9389262614623740e-01 4.0450849718747312e-01 0 0
5.580000000000e+10 0 0 4.0450849718747067e-01 2.9389262614624079e-01 4.0450849718747067e-01 2.9389262614624079e-01 0 0
5.590000000000e+10 0 0 4.7552825814757765e-01 1.5450849718747106e-01 4.7552825814757765e-01 1.5450849718747106e-01 0 0
5.600000000000e+10 0 0 5.0000000000000000e-01 3.4290110376125889e-15 5.0000000000000000e-01 3.4290110376125889e-15 0 0
5.610000000000e+10 0 0 4.7552825814757538e-01 -1.5450849718747806e-01 4.7552825814757538e-01 -1.5450849718747806e-01 0 0
5.620000000000e+10 0 0 4.0450849718747467e-01 -2.9389262614623524e-01 4.0450849718747467e-01 -2.9389262614623524e-01 0 0
5.630000000000e+10 0 0 2.9389262614624295e-01 -4.0450849718746906e-01 2.9389262614624295e-01 -4.0450849718746906e-01 0 0
5.640000000000e+10 0 0 1.5450849718747361e-01 -4.7552825814757682e-01 1.5450849718747361e-01 -4.7552825814757682e-01 0 0
5.650000000000e+10 0 0 6.1241624666916484e-15 -5.0000000000000000e-01 6.1241624666916484e-15 -5.0000000000000000e-01 0 0
5.660000000000e+10 0 0 -1.5450849718747547e-01 -4.7552825814757621e-01 -1.5450849718747547e-01 -4.7552825814757621e-01 0 0
5.670000000000e+10 0 0 -2.9389262614623302e-01 -4.0450849718747628e-01 -2.9389262614623302e-01 -4.0450849718747628e-01 0 0
5.680000000000e+10 0 0 -4.0450849718747584e-01 -2.9389262614623363e-01 -4.0450849718747584e-01 -2.9389262614623363e-01 0 0
5.690000000000e+10 0 0 -4.7552825814757599e-01 -1.5450849718747617e-01 -4.7552825814757599e-01 -1.5450849718747617e-01 0 0
5.700000000000e+10 0 0 -5.0000000000000000e-01 -8.8193138957707078e-15 -5.0000000000000000e-01 -8.8193138957707078e-15 0 0
5.710000000000e+10 0 0 -4.7552825814757704e-01 1.5450849718747292e-01 -4.7552825814757704e-01 1.5450849718747292e-01 0 0
5.720000000000e+10 0 0 -4.0450849718747783e-01 2.9389262614623085e-01 -4.0450849718747783e-01 2.9389262614623085e-01 0 0
5.730000000000e+10 0 0 -2.9389262614622430e-01 4.0450849718748261e-01 -2.9389262614622430e-01 4.0450849718748261e-01 0 0
5.740000000000e+10 0 0 -1.5450849718746523e-01 4.7552825814757954e-01 -1.5450849718746523e-01 4.7552825814757954e-01 0 0
5.750000000000e+10 0 0 2.6963893903522364e-15 5.0000000000000000e-01 2.6963893903522364e-15 5.0000000000000000e-01 0 0
5.760000000000e+10 0 0 1.5450849718748388e-01 4.7552825814757349e-01 1.5450849718748388e-01 4.7552825814757349e-01 0 0
5.770000000000e+10 0 0 2.9389262614624018e-01 4.0450849718747112e-01 2.9389262614624018e-01 4.0450849718747112e-01 0 0
5.780000000000e+10 0 0 4.0450849718748105e-01 2.9389262614622647e-01 4.0450849718748105e-01 2.9389262614622647e-01 0 0
5.790000000000e+10 0 0 4.7552825814757871e-01 1.5450849718746779e-01 4.7552825814757871e-01 1.5450849718746779e-01 0 0
5.800000000000e+10 0 0 5.0000000000000000e-01 -1.2379612731767154e-18 5.0000000000000000e-01 -1.2379612731767154e-18 0 0
5.810000000000e+10 0 0 4.7552825814757432e-01 -1.5450849718748130e-01 4.7552825814757432e-01 -1.5450849718748130e-01 0 0
5.820000000000e+10 0 0 4.0450849718747267e-01 -2.9389262614623801e-01 4.0450849718747267e-01 -2.9389262614623801e-01 0 0
5.830000000000e+10 0 0 2.9389262614622869e-01 -4.0450849718747944e-01 2.9389262614622869e-01 -4.0450849718747944e-01 0 0
5.840000000000e+10 0 0 1.5450849718747037e-01 -4.7552825814757788e-01 1.5450849718747037e-01 -4.7552825814757788e-01 0 0
5.850000000000e+10 0 0 2.6939134678058830e-15 -5.0000000000000000e-01 2.6939134678058830e-15 -5.0000000000000000e-01 0 0
5.860000000000e+10 0 0 -1.5450849718747875e-01 -4.7552825814757516e-01 -1.5450849718747875e-01 -4.7552825814757516e-01 0 0
5.870000000000e+10 0 0 -2.9389262614623579e-01 -4.0450849718747423e-01 -2.9389262614623579e-01 -4.0450849718747423e-01 0 0
5.880000000000e+10 0 0 -4.0450849718747789e-01 -2.9389262614623085e-01 -4.0450849718747789e-01 -2.9389262614623085e-01 0 0
5.890000000000e+10 0 0 -4.7552825814757704e-01 -1.5450849718747292e-01 -4.7552825814757704e-01 -1.5450849718747292e-01 0 0
5.900000000000e+10 0 0 -5.0000000000000000e-01 -5.3890648968849421e-15 -5.0000000000000000e-01 -5.3890648968849421e-15 0 0
5.910000000000e+10 0 0 -4.7552825814757599e-01 1.5450849718747620e-01 -4.7552825814757599e-01 1.5450849718747620e-01 0 0
5.920000000000e+10 0 0 -4.0450849718747584e-01 2.9389262614623363e-01 -4.0450849718747584e-01 2.9389262614623363e-01 0 0
5.930000000000e+10 0 0 -2.9389262614623302e-01 4.0450849718747628e-01 -2.9389262614623302e-01 4.0450849718747628e-01 0 0
5.940000000000e+10 0 0 -1.5450849718747547e-01 4.7552825814757621e-01 -1.5450849718747547e-01 4.7552825814757621e-01 0 0
5.950000000000e+10 0 0 -8.0842163259640016e-15 5.0000000000000000e-01 -8.0842163259640016e-15 5.0000000000000000e-01 0 0
5.960000000000e+10 0 0 1.5450849718747361e-01 4.7552825814757682e-01 1.5450849718747361e-01 4.7552825814757682e-01 0 0
5.970000000000e+10 0 0 2.9389262614623146e-01 4.0450849718747744e-01 2.9389262614623146e-01 4.0450849718747744e-01 0 0
5.980000000000e+10 0 0 4.0450849718747467e-01 2.9389262614623524e-01 4.0450849718747467e-01 2.9389262614623524e-01 0 0
5.990000000000e+10 0 0 4.7552825814757538e-01 1.5450849718747806e-01 4.7552825814757538e-01 1.5450849718747806e-01 0 0
6.000000000000e+10 0 0 5.0000000000000000e-01 1.0779367755043061e-14 5.0000000000000000e-01 1.0779367755043061e-14 0 0
6.010000000000e+10 0 0 4.7552825814757765e-01 -1.5450849718747106e-01 4.7552825814757765e-01 -1.5450849718747106e-01 0 0
6.020000000000e+10 0 0 4.0450849718747067e-01 -2.9389262614624079e-01 4.0450849718747067e-01 -2.9389262614624079e-01 0 0
6.030000000000e+10 0 0 2.9389262614622591e-01 -4.0450849718748144e-01 2.9389262614622591e-01 -4.0450849718748144e-01 0 0
6.040000000000e+10 0 0 1.5450849718746709e-01 -4.7552825814757893e-01 1.5450849718746709e-01 -4.7552825814757893e-01 0 0
6.050000000000e+10 0 0 -1.4947190246281885e-14 -5.0000000000000000e-01 -1.4947190246281885e-14 -5.0000000000000000e-01 0 0
6.060000000000e+10 0 0 -1.5450849718748200e-01 -4.7552825814757410e-01 -1.5450849718748200e-01 -4.7552825814757410e-01 0 0
6.070000000000e+10 0 0 -2.9389262614623857e-01 -4.0450849718747223e-01 -2.9389262614623857e-01 -4.0450849718747223e-01 0 0
6.080000000000e+10 0 0 -4.0450849718747989e-01 -2.9389262614622808e-01 -4.0450849718747989e-01 -2.9389262614622808e-01 0 0
6.090000000000e+10 0 0 -4.7552825814757810e-01 -1.5450849718746965e-01 -4.7552825814757810e-01 -1.5450849718746965e-01 0 0
6.100000000000e+10 0 0 -5.0000000000000000e-01 1.2252038817202827e-14 -5.0000000000000000e-01 1.2252038817202827e-14 0 0
6.110000000000e+10 0 0 -4.7552825814757493e-01 1.5450849718747944e-01 -4.7552825814757493e-01 1.5450849718747944e-01 0 0
6.120000000000e+10 0 0 -4.0450849718747384e-01 2.9389262614623640e-01 -4.0450849718747384e-01 2.9389262614623640e-01 0 0
6.130000000000e+10 0 0 -2.9389262614623024e-01 4.0450849718747828e-01 -2.9389262614623024e-01 4.0450849718747828e-01 0 0
6.140000000000e+10 0 0 -1.5450849718747223e-01 4.7552825814757727e-01 -1.5450849718747223e-01 4.7552825814757727e-01 0 0
6.150000000000e+10 0 0 9.5568873881237679e-15 5.0000000000000000e-01 9.5568873881237679e-15 5.0000000000000000e-01 0 0
6.160000000000e+10 0 0 1.5450849718747689e-01 4.7552825814757577e-01 1.5450849718747689e-01 4.7552825814757577e-01 0 0
6.170000000000e+10 0 0 2.9389262614623424e-01 4.0450849718747539e-01 2.9389262614623424e-01 4.0450849718747539e-01 0 0
6.180000000000e+10 0 0 4.0450849718747672e-01 2.9389262614623246e-01 4.0450849718747672e-01 2.9389262614623246e-01 0 0
6.190000000000e+10 0 0 4.7552825814757643e-01 1.5450849718747478e-01 4.7552825814757643e-01 1.5450849718747478e-01 0 0
6.200000000000e+10 0 0 5.0000000000000000e-01 -6.8617359590447077e-15 5.0000000000000000e-01 -6.8617359590447077e-15 0 0
6.210000000000e+10 0 0 4.7552825814757660e-01 -1.5450849718747431e-01 4.7552825814757660e-01 -1.5450849718747431e-01 0 0
6.220000000000e+10 0 0 4.0450849718747700e-01 -2.9389262614623202e-01 4.0450849718747700e-01 -2.9389262614623202e-01 0 0
6.230000000000e+10 0 0 2.9389262614623463e-01 -4.0450849718747511e-01 2.9389262614623463e-01 -4.0450849718747511e-01 0 0
6.240000000000e+10 0 0 1.5450849718747733e-01 -4.7552825814757560e-01 1.5450849718747733e-01 -4.7552825814757560e-01 0 0
6.250000000000e+10 0 0 -4.1665845299656482e-15 -5.0000000000000000e-01 -4.1665845299656482e-15 -5.0000000000000000e-01 0 0
6.260000000000e+10 0 0 -1.5450849718747175e-01 -4.7552825814757743e-01 -1.5450849718747175e-01 -4.7552825814757743e-01 0 0
6.270000000000e+10 0 0 -2.9389262614622985e-01 -4.0450849718747856e-01 -2.9389262614622985e-01 -4.0450849718747856e-01 0 0
6.280000000000e+10 0 0 -4.0450849718747356e-01 -2.9389262614623679e-01 -4.0450849718747356e-01 -2.9389262614623679e-01 0 0
6.290000000000e+10 0 0 -4.7552825814757477e-01 -1.5450849718747992e-01 -4.7552825814757477e-01 -1.5450849718747992e-01 0 0
6.300000000000e+10 0 0 -5.0000000000000000e-01 1.4714331008865889e-15 -5.0000000000000000e-01 1.4714331008865889e-15 0 0
6.310000000000e+10 0 0 -4.7552825814757388e-01 1.5450849718748272e-01 -4.7552825814757388e-01 1.5450849718748272e-01 0 0
6.320000000000e+10 0 0 -4.0450849718747178e-01 2.9389262614623918e-01 -4.0450849718747178e-01 2.9389262614623918e-01 0 0
6.330000000000e+10 0 0 -2.9389262614622746e-01 4.0450849718748028e-01 -2.9389262614622746e-01 4.0450849718748028e-01 0 0
6.340000000000e+10 0 0 -1.5450849718746895e-01 4.7552825814757832e-01 -1.5450849718746895e-01 4.7552825814757832e-01 0 0
6.350000000000e+10 0 0 1.2987136387009534e-14 5.0000000000000000e-01 1.2987136387009534e-14 5.0000000000000000e-01 0 0
6.360000000000e+10 0 0 1.5450849718748014e-01 4.7552825814757471e-01 1.5450849718748014e-01 4.7552825814757471e-01 0 0
6.370000000000e+10 0 0 2.9389262614623701e-01 4.0450849718747339e-01 2.9389262614623701e-01 4.0450849718747339e-01 0 0
6.380000000000e+10 0 0 4.0450849718747872e-01 2.9389262614622969e-01 4.0450849718747872e-01 2.9389262614622969e-01 0 0
6.390000000000e+10 0 0 4.7552825814757749e-01 1.5450849718747153e-01 4.7552825814757749e-01 1.5450849718747153e-01 0 0
6.400000000000e+10 0 0 5.0000000000000000e-01 -1.0291984957930474e-14 5.0000000000000000e-01 -1.0291984957930474e-14 0 0
6.410000000000e+10 0 0 4.7552825814757554e-01 -1.5450849718747758e-01 4.7552825814757554e-01 -1.5450849718747758e-01 0 0
6.420000000000e+10 0 0 4.0450849718747500e-01 -2.9389262614623479e-01 4.0450849718747500e-01 -2.9389262614623479e-01 0 0
6.430000000000e+10 0 0 2.9389262614623185e-01 -4.0450849718747717e-01 2.9389262614623185e-01 -4.0450849718747717e-01 0 0
6.440000000000e+10 0 0 1.5450849718747409e-01 -4.7552825814757665e-01 1.5450849718747409e-01 -4.7552825814757665e-01 0 0
6.450000000000e+10 0 0 -7.5968335288514148e-15 -5.0000000000000000e-01 -7.5968335288514148e-15 -5.0000000000000000e-01 0 0
6.460000000000e+10 0 0 -1.5450849718747503e-01 -4.7552825814757638e-01 -1.5450849718747503e-01 -4.7552825814757638e-01 0 0
6.470000000000e+10 0 0 -2.9389262614623263e-01 -4.0450849718747656e-01 -2.9389262614623263e-01 -4.0450849718747656e-01 0 0
6.480000000000e+10 0 0 -4.0450849718747556e-01 -2.9389262614623402e-01 -4.0450849718747556e-01 -2.9389262614623402e-01 0 0
6.490000000000e+10 0 0 -4.7552825814757582e-01 -1.5450849718747664e-01 -4.7552825814757582e-01 -1.5450849718747664e-01 0 0
6.500000000000e+10 0 0 -5.0000000000000000e-01 4.9016820997723545e-15 -5.0000000000000000e-01 4.9016820997723545e-15 0 0
6.510000000000e+10 0 0 -4.7552825814757721e-01 1.5450849718747245e-01 -4.7552825814757721e-01 1.5450849718747245e-01 0 0
6.520000000000e+10 0 0 -4.0450849718747817e-01 2.9389262614623046e-01 -4.0450849718747817e-01 2.9389262614623046e-01 0 0
6.530000000000e+10 0 0 -2.9389262614623624e-01 4.0450849718747395e-01 -2.9389262614623624e-01 4.0450849718747395e-01 0 0
6.540000000000e+10 0 0 -1.5450849718747922e-01 4.7552825814757499e-01 -1.5450849718747922e-01 4.7552825814757499e-01 0 0
6.550000000000e+10 0 0 2.2065306706932950e-15 5.0000000000000000e-01 2.2065306706932950e-15 5.0000000000000000e-01 0 0
6.560000000000e+10 0 0 1.5450849718746990e-01 4.7552825814757804e-01 1.5450849718746990e-01 4.7552825814757804e-01 0 0
6.570000000000e+10 0 0 2.9389262614622830e-01 4.0450849718747972e-01 2.9389262614622830e-01 4.0450849718747972e-01 0 0
6.580000000000e+10 0 0 4.0450849718747239e-01 2.9389262614623840e-01 4.0450849718747239e-01 2.9389262614623840e-01 0 0
6.590000000000e+10 0 0 4.7552825814757416e-01 1.5450849718748177e-01 4.7552825814757416e-01 1.5450849718748177e-01 0 0
6.600000000000e+10 0 0 5.0000000000000000e-01 4.8862075838576458e-16 5.0000000000000000e-01 4.8862075838576458e-16 0 0
6.610000000000e+10 0 0 4.7552825814757449e-01 -1.5450849718748083e-01 4.7552825814757449e-01 -1.5450849718748083e-01 0 0
6.620000000000e+10 0 0 4.0450849718746462e-01 -2.9389262614624911e-01 4.0450849718746462e-01 -2.9389262614624911e-01 0 0
6.630000000000e+10 0 0 2.9389262614622907e-01 -4.0450849718747917e-01 2.9389262614622907e-01 -4.0450849718747917e-01 0 0
6.640000000000e+10 0 0 1.5450849718747081e-01 -4.7552825814757771e-01 1.5450849718747081e-01 -4.7552825814757771e-01 0 0
6.650000000000e+10 0 0 -1.1027082527737179e-14 -5.0000000000000000e-01 -1.1027082527737179e-14 -5.0000000000000000e-01 0 0
6.660000000000e+10 0 0 -1.5450849718747828e-01 -4.7552825814757532e-01 -1.5450849718747828e-01 -4.7552825814757532e-01 0 0
6.670000000000e+10 0 0 -2.9389262614624689e-01 -4.0450849718746618e-01 -2.9389262614624689e-01 -4.0450849718746618e-01 0 0
6.680000000000e+10 0 0 -4.0450849718747756e-01 -2.9389262614623124e-01 -4.0450849718747756e-01 -2.9389262614623124e-01 0 0
6.690000000000e+10 0 0 -4.7552825814757688e-01 -1.5450849718747339e-01 -4.7552825814757688e-01 -1.5450849718747339e-01 0 0
6.700000000000e+10 0 0 -5.0000000000000000e-01 8.3319310986581195e-15 -5.0000000000000000e-01 8.3319310986581195e-15 0 0
6.710000000000e+10 0 0 -4.7552825814757615e-01 1.5450849718747572e-01 -4.7552825814757615e-01 1.5450849718747572e-01 0 0
6.720000000000e+10 0 0 -4.0450849718746779e-01 2.9389262614624473e-01 -4.0450849718746779e-01 2.9389262614624473e-01 0 0
6.730000000000e+10 0 0 -2.9389262614623346e-01 4.0450849718747600e-01 -2.9389262614623346e-01 4.0450849718747600e-01 0 0
6.740000000000e+10 0 0 -1.5450849718747595e-01 4.7552825814757604e-01 -1.5450849718747595e-01 4.7552825814757604e-01 0 0
6.750000000000e+10 0 0 5.6367796695790608e-15 5.0000000000000000e-01 5.6367796695790608e-15 5.0000000000000000e-01 0 0
6.760000000000e+10 0 0 1.5450849718747314e-01 4.7552825814757699e-01 1.5450849718747314e-01 4.7552825814757699e-01 0 0
6.770000000000e+10 0 0 2.9389262614624256e-01 4.0450849718746934e-01 2.9389262614624256e-01 4.0450849718746934e-01 0 0
6.780000000000e+10 0 0 4.0450849718747439e-01 2.9389262614623562e-01 4.0450849718747439e-01 2.9389262614623562e-01 0 0
6.790000000000e+10 0 0 4.7552825814757521e-01 1.5450849718747850e-01 4.7552825814757521e-01 1.5450849718747850e-01 0 0
6.800000000000e+10 0 0 5.0000000000000000e-01 -2.9416282405000009e-15 5.0000000000000000e-01 -2.9416282405000009e-15 0 0
6.810000000000e+10 0 0 4.7552825814757782e-01 -1.5450849718747059e-01 4.7552825814757782e-01 -1.5450849718747059e-01 0 0
6.820000000000e+10 0 0 4.0450849718747095e-01 -2.9389262614624034e-01 4.0450849718747095e-01 -2.9389262614624034e-01 0 0
6.830000000000e+10 0 0 2.9389262614623779e-01 -4.0450849718747284e-01 2.9389262614623779e-01 -4.0450849718747284e-01 0 0
6.840000000000e+10 0 0 1.5450849718748108e-01 -4.7552825814757438e-01 1.5450849718748108e-01 -4.7552825814757438e-01 0 0
6.850000000000e+10 0 0 -2.4647681142094152e-16 -5.0000000000000000e-01 -2.4647681142094152e-16 -5.0000000000000000e-01 0 0
6.860000000000e+10 0 0 -1.5450849718746804e-01 -4.7552825814757865e-01 -1.5450849718746804e-01 -4.7552825814757865e-01 0 0
6.870000000000e+10 0 0 -2.9389262614623818e-01 -4.0450849718747250e-01 -2.9389262614623818e-01 -4.0450849718747250e-01 0 0
6.880000000000e+10 0 0 -4.0450849718747123e-01 -2.9389262614623995e-01 -4.0450849718747123e-01 -2.9389262614623995e-01 0 0
6.890000000000e+10 0 0 -4.7552825814757355e-01 -1.5450849718748363e-01 -4.7552825814757355e-01 -1.5450849718748363e-01 0 0
6.900000000000e+10 0 0 -5.0000000000000000e-01 1.1762180097543885e-14 -5.0000000000000000e-01 1.1762180097543885e-14 0 0
6.910000000000e+10 0 0 -4.7552825814757510e-01 1.5450849718747897e-01 -4.7552825814757510e-01 1.5450849718747897e-01 0 0
6.920000000000e+10 0 0 -4.0450849718746573e-01 2.9389262614624750e-01 -4.0450849718746573e-01 2.9389262614624750e-01 0 0
6.930000000000e+10 0 0 -2.9389262614623063e-01 4.0450849718747800e-01 -2.9389262614623063e-01 4.0450849718747800e-01 0 0
6.940000000000e+10 0 0 -1.5450849718747270e-01 4.7552825814757710e-01 -1.5450849718747270e-01 4.7552825814757710e-01 0 0
6.950000000000e+10 0 0 9.0670286684648258e-15 5.0000000000000000e-01 9.0670286684648258e-15 5.0000000000000000e-01 0 0
6.960000000000e+10 0 0 1.5450849718747642e-01 4.7552825814757593e-01 1.5450849718747642e-01 4.7552825814757593e-01 0 0
6.970000000000e+10 0 0 2.9389262614624534e-01 4.0450849718746734e-01 2.9389262614624534e-01 4.0450849718746734e-01 0 0
6.980000000000e+10 0 0 4.0450849718747639e-01 2.9389262614623285e-01 4.0450849718747639e-01 2.9389262614623285e-01 0 0
6.990000000000e+10 0 0 4.7552825814757627e-01 1.5450849718747525e-01 4.7552825814757627e-01 1.5450849718747525e-01 0 0
7.000000000000e+10 0 0 5.0000000000000000e-01 -6.3718772393857663e-15 5.0000000000000000e-01 -6.3718772393857663e-15 0 0
7.010000000000e+10 0 0 4.7552825814757677e-01 -1.5450849718747386e-01 4.7552825814757677e-01 -1.5450849718747386e-01 0 0
7.020000000000e+10 0 0 4.0450849718746895e-01 -2.9389262614624312e-01 4.0450849718746895e-01 -2.9389262614624312e-01 0 0
7.030000000000e+10 0 0 2.9389262614623501e-01 -4.0450849718747484e-01 2.9389262614623501e-01 -4.0450849718747484e-01 0 0
7.040000000000e+10 0 0 1.5450849718747781e-01 -4.7552825814757543e-01 1.5450849718747781e-01 -4.7552825814757543e-01 0 0
7.050000000000e+10 0 0 -3.6767258103067068e-15 -5.0000000000000000e-01 -3.6767258103067068e-15 -5.0000000000000000e-01 0 0
7.060000000000e+10 0 0 -1.5450849718747128e-01 -4.7552825814757760e-01 -1.5450849718747128e-01 -4.7552825814757760e-01 0 0
7.070000000000e+10 0 0 -2.9389262614624095e-01 -4.0450849718747051e-01 -2.9389262614624095e-01 -4.0450849718747051e-01 0 0
7.080000000000e+10 0 0 -4.0450849718747328e-01 -2.9389262614623718e-01 -4.0450849718747328e-01 -2.9389262614623718e-01 0 0
7.090000000000e+10 0 0 -4.7552825814757460e-01 -1.5450849718748039e-01 -4.7552825814757460e-01 -1.5450849718748039e-01 0 0
7.100000000000e+10 0 0 -5.0000000000000000e-01 9.8157438122764752e-16 -5.0000000000000000e-01 9.8157438122764752e-16 0 0
7.110000000000e+10 0 0 -4.7552825814757843e-01 1.5450849718746873e-01 -4.7552825814757843e-01 1.5450849718746873e-01 0 0
7.120000000000e+10 0 0 -4.0450849718747212e-01 2.9389262614623879e-01 -4.0450849718747212e-01 2.9389262614623879e-01 0 0
7.130000000000e+10 0 0 -2.9389262614623940e-01 4.0450849718747167e-01 -2.9389262614623940e-01 4.0450849718747167e-01 0 0
7.140000000000e+10 0 0 -1.5450849718746942e-01 4.7552825814757815e-01 -1.5450849718746942e-01 4.7552825814757815e-01 0 0
7.150000000000e+10 0 0 -1.7135770478514120e-15 5.0000000000000000e-01 -1.7135770478514120e-15 5.0000000000000000e-01 0 0
7.160000000000e+10 0 0 1.5450849718746618e-01 4.7552825814757926e-01 1.5450849718746618e-01 4.7552825814757926e-01 0 0
7.170000000000e+10 0 0 2.9389262614623662e-01 4.0450849718747367e-01 2.9389262614623662e-01 4.0450849718747367e-01 0 0
7.180000000000e+10 0 0 4.0450849718747006e-01 2.9389262614624156e-01 4.0450849718747006e-01 2.9389262614624156e-01 0 0
7.190000000000e+10 0 0 4.7552825814758176e-01 1.5450849718745846e-01 4.7552825814758176e-01 1.5450849718745846e-01 0 0
7.200000000000e+10 0 0 5.0000000000000000e-01 -9.8021262382715321e-15 5.0000000000000000e-01 -9.8021262382715321e-15 0 0
7.210000000000e+10 0 0 4.7552825814757566e-01 -1.5450849718747711e-01 4.7552825814757566e-01 -1.5450849718747711e-01 0 0
7.220000000000e+10 0 0 4.0450849718746690e-01 -2.9389262614624589e-01 4.0450849718746690e-01 -2.9389262614624589e-01 0 0
7.230000000000e+10 0 0 2.9389262614623224e-01 -4.0450849718747683e-01 2.9389262614623224e-01 -4.0450849718747683e-01 0 0
7.240000000000e+10 0 0 1.5450849718746104e-01 -4.7552825814758093e-01 1.5450849718746104e-01 -4.7552825814758093e-01 0 0
7.250000000000e+10 0 0 -7.1069748091924726e-15 -5.0000000000000000e-01 -7.1069748091924726e-15 -5.0000000000000000e-01 0 0
7.260000000000e+10 0 0 -1.5450849718747456e-01 -4.7552825814757649e-01 -1.5450849718747456e-01 -4.7552825814757649e-01 0 0
7.270000000000e+10 0 0 -2.9389262614624373e-01 -4.0450849718746851e-01 -2.9389262614624373e-01 -4.0450849718746851e-01 0 0
7.280000000000e+10 0 0 -4.0450849718747528e-01 -2.9389262614623440e-01 -4.0450849718747528e-01 -2.9389262614623440e-01 0 0
7.290000000000e+10 0 0 -4.7552825814758010e-01 -1.5450849718746359e-01 -4.7552825814758010e-01 -1.5450849718746359e-01 0 0
7.300000000000e+10 0 0 -5.0000000000000000e-01 4.4118233801134131e-15 -5.0000000000000000e-01 4.4118233801134131e-15 0 0
7.310000000000e+10 0 0 -4.7552825814757732e-01 1.5450849718747198e-01 -4.7552825814757732e-01 1.5450849718747198e-01 0 0
7.320000000000e+10 0 0 -4.0450849718747006e-01 2.9389262614624156e-01 -4.0450849718747006e-01 2.9389262614624156e-01 0 0
7.330000000000e+10 0 0 -2.9389262614623662e-01 4.0450849718747367e-01 -2.9389262614623662e-01 4.0450849718747367e-01 0 0
7.340000000000e+10 0 0 -1.5450849718746615e-01 4.7552825814757926e-01 -1.5450849718746615e-01 4.7552825814757926e-01 0 0
7.350000000000e+10 0 0 1.7166719510343536e-15 5.0000000000000000e-01 1.7166719510343536e-15 5.0000000000000000e-01 0 0
7.360000000000e+10 0 0 1.5450849718746942e-01 4.7552825814757815e-01 1.5450849718746942e-01 4.7552825814757815e-01 0 0
7.370000000000e+10 0 0 2.9389262614623940e-01 4.0450849718747167e-01 2.9389262614623940e-01 4.0450849718747167e-01 0 0
7.380000000000e+10 0 0 4.0450849718747212e-01 2.9389262614623879e-01 4.0450849718747212e-01 2.9389262614623879e-01 0 0
7.390000000000e+10 0 0 4.7552825814757843e-01 1.5450849718746873e-01 4.7552825814757843e-01 1.5450849718746873e-01 0 0
7.400000000000e+10 0 0 5.0000000000000000e-01 9.7847947804470586e-16 5.0000000000000000e-01 9.7847947804470586e-16 0 0
7.410000000000e+10 0 0 4.7552825814757899e-01 -1.5450849718746687e-01 4.7552825814757899e-01 -1.5450849718746687e-01 0 0
7.420000000000e+10 0 0 4.0450849718747328e-01 -2.9389262614623718e-01 4.0450849718747328e-01 -2.9389262614623718e-01 0 0
7.430000000000e+10 0 0 2.9389262614624095e-01 -4.0450849718747051e-01 2.9389262614624095e-01 -4.0450849718747051e-01 0 0
7.440000000000e+10 0 0 1.5450849718747128e-01 -4.7552825814757760e-01 1.5450849718747128e-01 -4.7552825814757760e-01 0 0
7.450000000000e+10 0 0 3.6736309071237653e-15 -5.0000000000000000e-01 3.6736309071237653e-15 -5.0000000000000000e-01 0 0
7.460000000000e+10 0 0 -1.5450849718746429e-01 -4.7552825814757982e-01 -1.5450849718746429e-01 -4.7552825814757982e-01 0 0
7.470000000000e+10 0 0 -2.9389262614623501e-01 -4.0450849718747484e-01 -2.9389262614623501e-01 -4.0450849718747484e-01 0 0
7.480000000000e+10 0 0 -4.0450849718746895e-01 -2.9389262614624312e-01 -4.0450849718746895e-01 -2.9389262614624312e-01 0 0
7.490000000000e+10 0 0 -4.7552825814758115e-01 -1.5450849718746035e-01 -4.7552825814758115e-01 -1.5450849718746035e-01 0 0
7.500000000000e+10 0 0 -5.0000000000000000e-01 7.8420723789991789e-15 -5.0000000000000000e-01 7.8420723789991789e-15 0 0
7.510000000000e+10 0 0 -4.7552825814757188e-01 1.5450849718748877e-01 -4.7552825814757188e-01 1.5450849718748877e-01 0 0
7.520000000000e+10 0 0 -4.0450849718746806e-01 2.9389262614624434e-01 -4.0450849718746806e-01 2.9389262614624434e-01 0 0
7.530000000000e+10 0 0 -2.9389262614623385e-01 4.0450849718747572e-01 -2.9389262614623385e-01 4.0450849718747572e-01 0 0
7.540000000000e+10 0 0 -1.5450849718746290e-01 4.7552825814758032e-01 -1.5450849718746290e-01 4.7552825814758032e-01 0 0
7.550000000000e+10 0 0 5.1469209499201194e-15 5.0000000000000000e-01 5.1469209499201194e-15 5.0000000000000000e-01 0 0
7.560000000000e+10 0 0 1.5450849718748622e-01 4.7552825814757271e-01 1.5450849718748622e-01 4.7552825814757271e-01 0 0
7.570000000000e+10 0 0 2.9389262614624218e-01 4.0450849718746967e-01 2.9389262614624218e-01 4.0450849718746967e-01 0 0
7.580000000000e+10 0 0 4.0450849718747411e-01 2.9389262614623601e-01 4.0450849718747411e-01 2.9389262614623601e-01 0 0
7.590000000000e+10 0 0 4.7552825814757949e-01 1.5450849718746545e-01 4.7552825814757949e-01 1.5450849718746545e-01 0 0
7.600000000000e+10 0 0 5.0000000000000000e-01 -2.4517695208410599e-15 5.0000000000000000e-01 -2.4517695208410599e-15 0 0
7.610000000000e+10 0 0 4.7552825814757355e-01 -1.5450849718748363e-01 4.7552825814757355e-01 -1.5450849718748363e-01 0 0
7.620000000000e+10 0 0 4.0450849718747123e-01 -2.9389262614623995e-01 4.0450849718747123e-01 -2.9389262614623995e-01 0 0
7.630000000000e+10 0 0 2.9389262614623818e-01 -4.0450849718747250e-01 2.9389262614623818e-01 -4.0450849718747250e-01 0 0
7.640000000000e+10 0 0 1.5450849718746804e-01 -4.7552825814757865e-01 1.5450849718746804e-01 -4.7552825814757865e-01 0 0
7.650000000000e+10 0 0 2.4338190823799976e-16 -5.0000000000000000e-01 2.4338190823799976e-16 -5.0000000000000000e-01 0 0
7.660000000000e+10 0 0 -1.5450849718748108e-01 -4.7552825814757438e-01 -1.5450849718748108e-01 -4.7552825814757438e-01 0 0
7.670000000000e+10 0 0 -2.9389262614623779e-01 -4.0450849718747284e-01 -2.9389262614623779e-01 -4.0450849718747284e-01 0 0
7.680000000000e+10 0 0 -4.0450849718747095e-01 -2.9389262614624034e-01 -4.0450849718747095e-01 -2.9389262614624034e-01 0 0
7.690000000000e+10 0 0 -4.7552825814757782e-01 -1.5450849718747059e-01 -4.7552825814757782e-01 -1.5450849718747059e-01 0 0
7.700000000000e+10 0 0 -5.0000000000000000e-01 -2.9385333373170594e-15 -5.0000000000000000e-01 -2.9385333373170594e-15 0 0
7.710000000000e+10 0 0 -4.7552825814757521e-01 1.5450849718747850e-01 -4.7552825814757521e-01 1.5450849718747850e-01 0 0
7.720000000000e+10 0 0 -4.0450849718747439e-01 2.9389262614623562e-01 -4.0450849718747439e-01 2.9389262614623562e-01 0 0
7.730000000000e+10 0 0 -2.9389262614624256e-01 4.0450849718746934e-01 -2.9389262614624256e-01 4.0450849718746934e-01 0 0
7.740000000000e+10 0 0 -1.5450849718747314e-01 4.7552825814757699e-01 -1.5450849718747314e-01 4.7552825814757699e-01 0 0
7.750000000000e+10 0 0 -5.6336847663961185e-15 5.0000000000000000e-01 -5.6336847663961185e-15 5.0000000000000000e-01 0 0
7.760000000000e+10 0 0 1.5450849718747595e-01 4.7552825814757604e-01 1.5450849718747595e-01 4.7552825814757604e-01 0 0
7.770000000000e+10 0 0 2.9389262614623346e-01 4.0450849718747600e-01 2.9389262614623346e-01 4.0450849718747600e-01 0 0
7.780000000000e+10 0 0 4.0450849718747611e-01 2.9389262614623324e-01 4.0450849718747611e-01 2.9389262614623324e-01 0 0
7.790000000000e+10 0 0 4.7552825814758054e-01 1.5450849718746221e-01 4.7552825814758054e-01 1.5450849718746221e-01 0 0
7.800000000000e+10 0 0 5.0000000000000000e-01 -5.8820185197268257e-15 5.0000000000000000e-01 -5.8820185197268257e-15 0 0
7.810000000000e+10 0 0 4.7552825814757249e-01 -1.5450849718748691e-01 4.7552825814757249e-01 -1.5450849718748691e-01 0 0
7.820000000000e+10 0 0 4.0450849718746923e-01 -2.9389262614624273e-01 4.0450849718746923e-01 -2.9389262614624273e-01 0 0
7.830000000000e+10 0 0 2.9389262614623540e-01 -4.0450849718747456e-01 2.9389262614623540e-01 -4.0450849718747456e-01 0 0
7.840000000000e+10 0 0 1.5450849718746476e-01 -4.7552825814757971e-01 1.5450849718746476e-01 -4.7552825814757971e-01 0 0
7.850000000000e+10 0 0 -3.1868670906477658e-15 -5.0000000000000000e-01 -3.1868670906477658e-15 -5.0000000000000000e-01 0 0
7.860000000000e+10 0 0 -1.5450849718748433e-01 -4.7552825814757332e-01 -1.5450849718748433e-01 -4.7552825814757332e-01 0 0
7.870000000000e+10 0 0 -2.9389262614624057e-01 -4.0450849718747078e-01 -2.9389262614624057e-01 -4.0450849718747078e-01 0 0
7.880000000000e+10 0 0 -4.0450849718747295e-01 -2.9389262614623757e-01 -4.0450849718747295e-01 -2.9389262614623757e-01 0 0
7.890000000000e+10 0 0 -4.7552825814757888e-01 -1.5450849718746731e-01 -4.7552825814757888e-01 -1.5450849718746731e-01 0 0
7.900000000000e+10 0 0 -5.0000000000000000e-01 4.9171566156870634e-16 -5.0000000000000000e-01 4.9171566156870634e-16 0 0
7.910000000000e+10 0 0 -4.7552825814757416e-01 1.5450849718748177e-01 -4.7552825814757416e-01 1.5450849718748177e-01 0 0
7.920000000000e+10 0 0 -4.0450849718747239e-01 2.9389262614623840e-01 -4.0450849718747239e-01 2.9389262614623840e-01 0 0
7.930000000000e+10 0 0 -2.9389262614623979e-01 4.0450849718747139e-01 -2.9389262614623979e-01 4.0450849718747139e-01 0 0
7.940000000000e+10 0 0 -1.5450849718746990e-01 4.7552825814757804e-01 -1.5450849718746990e-01 4.7552825814757804e-01 0 0
7.950000000000e+10 0 0 -2.2034357675103531e-15 5.0000000000000000e-01 -2.2034357675103531e-15 5.0000000000000000e-01 0 0
7.960000000000e+10 0 0 1.5450849718747922e-01 4.7552825814757499e-01 1.5450849718747922e-01 4.7552825814757499e-01 0 0
7.970000000000e+10 0 0 2.9389262614623624e-01 4.0450849718747395e-01 2.9389262614623624e-01 4.0450849718747395e-01 0 0
7.980000000000e+10 0 0 4.0450849718746978e-01 2.9389262614624195e-01 4.0450849718746978e-01 2.9389262614624195e-01 0 0
7.990000000000e+10 0 0 4.7552825814757721e-01 1.5450849718747245e-01 4.7552825814757721e-01 1.5450849718747245e-01 0 0
8.000000000000e+10 0 0 5.0000000000000000e-01 4.8985871965894130e-15 5.0000000000000000e-01 4.8985871965894130e-15 0 0
8.010000000000e+10 0 0 4.7552825814757582e-01 -1.5450849718747664e-01 4.7552825814757582e-01 -1.5450849718747664e-01 0 0
8.020000000000e+10 0 0 4.0450849718747556e-01 -2.9389262614623402e-01 4.0450849718747556e-01 -2.9389262614623402e-01 0 0
8.030000000000e+10 0 0 2.9389262614624412e-01 -4.0450849718746823e-01 2.9389262614624412e-01 -4.0450849718746823e-01 0 0
8.040000000000e+10 0 0 1.5450849718747500e-01 -4.7552825814757638e-01 1.5450849718747500e-01 -4.7552825814757638e-01 0 0
8.050000000000e+10 0 0 7.5937386256684717e-15 -5.0000000000000000e-01 7.5937386256684717e-15 -5.0000000000000000e-01 0 0
8.060000000000e+10 0 0 -1.5450849718747409e-01 -4.7552825814757665e-01 -1.5450849718747409e-01 -4.7552825814757665e-01 0 0
8.070000000000e+10 0 0 -2.9389262614624334e-01 -4.0450849718746879e-01 -2.9389262614624334e-01 -4.0450849718746879e-01 0 0
8.080000000000e+10 0 0 -4.0450849718748333e-01 -2.9389262614622330e-01 -4.0450849718748333e-01 -2.9389262614622330e-01 0 0
8.090000000000e+10 0 0 -4.7552825814757993e-01 -1.5450849718746407e-01 -4.7552825814757993e-01 -1.5450849718746407e-01 0 0
8.100000000000e+10 0 0 -5.0000000000000000e-01 3.9219646604544717e-15 -5.0000000000000000e-01 3.9219646604544717e-15 0 0
8.110000000000e+10 0 0 -4.7552825814757310e-01 1.5450849718748505e-01 -4.7552825814757310e-01 1.5450849718748505e-01 0 0
8.120000000000e+10 0 0 -4.0450849718747039e-01 2.9389262614624118e-01 -4.0450849718747039e-01 2.9389262614624118e-01 0 0
8.130000000000e+10 0 0 -2.9389262614622552e-01 4.0450849718748177e-01 -2.9389262614622552e-01 4.0450849718748177e-01 0 0
8.140000000000e+10 0 0 -1.5450849718746662e-01 4.7552825814757910e-01 -1.5450849718746662e-01 4.7552825814757910e-01 0 0
8.150000000000e+10 0 0 1.5437667946577417e-14 5.0000000000000000e-01 1.5437667946577417e-14 5.0000000000000000e-01 0 0
8.160000000000e+10 0 0 1.5450849718748247e-01 4.7552825814757393e-01 1.5450849718748247e-01 4.7552825814757393e-01 0 0
8.170000000000e+10 0 0 2.9389262614623901e-01 4.0450849718747195e-01 2.9389262614623901e-01 4.0450849718747195e-01 0 0
8.180000000000e+10 0 0 4.0450849718747184e-01 2.9389262614623918e-01 4.0450849718747184e-01 2.9389262614623918e-01 0 0
8.190000000000e+10 0 0 4.7552825814757388e-01 1.5450849718748272e-01 4.7552825814757388e-01 1.5450849718748272e-01 0 0
8.200000000000e+10 0 0 5.0000000000000000e-01 -1.2742516517498357e-14 5.0000000000000000e-01 -1.2742516517498357e-14 0 0
8.210000000000e+10 0 0 4.7552825814757477e-01 -1.5450849718747992e-01 4.7552825814757477e-01 -1.5450849718747992e-01 0 0
8.220000000000e+10 0 0 4.0450849718747356e-01 -2.9389262614623679e-01 4.0450849718747356e-01 -2.9389262614623679e-01 0 0
8.230000000000e+10 0 0 2.9389262614624134e-01 -4.0450849718747023e-01 2.9389262614624134e-01 -4.0450849718747023e-01 0 0
8.240000000000e+10 0 0 1.5450849718748527e-01 -4.7552825814757305e-01 1.5450849718748527e-01 -4.7552825814757305e-01 0 0
8.250000000000e+10 0 0 -1.0047365088419298e-14 -5.0000000000000000e-01 -1.0047365088419298e-14 -5.0000000000000000e-01 0 0
8.260000000000e+10 0 0 -1.5450849718747736e-01 -4.7552825814757560e-01 -1.5450849718747736e-01 -4.7552825814757560e-01 0 0
8.270000000000e+10 0 0 -2.9389262614623463e-01 -4.0450849718747511e-01 -2.9389262614623463e-01 -4.0450849718747511e-01 0 0
8.280000000000e+10 0 0 -4.0450849718746867e-01 -2.9389262614624356e-01 -4.0450849718746867e-01 -2.9389262614624356e-01 0 0
8.290000000000e+10 0 0 -4.7552825814757221e-01 -1.5450849718748783e-01 -4.7552825814757221e-01 -1.5450849718748783e-01 0 0
8.300000000000e+10 0 0 -5.0000000000000000e-01 7.3522136593402383e-15 -5.0000000000000000e-01 7.3522136593402383e-15 0 0
8.310000000000e+10 0 0 -4.7552825814757643e-01 1.5450849718747478e-01 -4.7552825814757643e-01 1.5450849718747478e-01 0 0
8.320000000000e+10 0 0 -4.0450849718747672e-01 2.9389262614623246e-01 -4.0450849718747672e-01 2.9389262614623246e-01 0 0
8.330000000000e+10 0 0 -2.9389262614624573e-01 4.0450849718746706e-01 -2.9389262614624573e-01 4.0450849718746706e-01 0 0
8.340000000000e+10 0 0 -1.5450849718749041e-01 4.7552825814757138e-01 -1.5450849718749041e-01 4.7552825814757138e-01 0 0
8.350000000000e+10 0 0 4.6570622302611780e-15 5.0000000000000000e-01 4.6570622302611780e-15 5.0000000000000000e-01 0 0
8.360000000000e+10 0 0 1.5450849718747223e-01 4.7552825814757727e-01 1.5450849718747223e-01 4.7552825814757727e-01 0 0
8.370000000000e+10 0 0 2.9389262614625328e-01 4.0450849718746157e-01 2.9389262614625328e-01 4.0450849718746157e-01 0 0
8.380000000000e+10 0 0 4.0450849718748216e-01 2.9389262614622491e-01 4.0450849718748216e-01 2.9389262614622491e-01 0 0
8.390000000000e+10 0 0 4.7552825814757932e-01 1.5450849718746593e-01 4.7552825814757932e-01 1.5450849718746593e-01 0 0
8.400000000000e+10 0 0 5.0000000000000000e-01 -1.9619108011821185e-15 5.0000000000000000e-01 -1.9619108011821185e-15 0 0
8.410000000000e+10 0 0 4.7552825814757810e-01 -1.5450849718746965e-01 4.7552825814757810e-01 -1.5450849718746965e-01 0 0
8.420000000000e+10 0 0 4.0450849718746318e-01 -2.9389262614625106e-01 4.0450849718746318e-01 -2.9389262614625106e-01 0 0
8.430000000000e+10 0 0 2.9389262614622708e-01 -4.0450849718748061e-01 2.9389262614622708e-01 -4.0450849718748061e-01 0 0
8.440000000000e+10 0 0 1.5450849718746848e-01 -4.7552825814757849e-01 1.5450849718746848e-01 -4.7552825814757849e-01 0 0
8.450000000000e+10 0 0 7.3324062789694105e-16 -5.0000000000000000e-01 7.3324062789694105e-16 -5.0000000000000000e-01 0 0
8.460000000000e+10 0 0 -1.5450849718746709e-01 -4.7552825814757893e-01 -1.5450849718746709e-01 -4.7552825814757893e-01 0 0
8.470000000000e+10 0 0 -2.9389262614624889e-01 -4.0450849718746473e-01 -2.9389262614624889e-01 -4.0450849718746473e-01 0 0
8.480000000000e+10 0 0 -4.0450849718747900e-01 -2.9389262614622924e-01 -4.0450849718747900e-01 -2.9389262614622924e-01 0 0
8.490000000000e+10 0 0 -4.7552825814757765e-01 -1.5450849718747106e-01 -4.7552825814757765e-01 -1.5450849718747106e-01 0 0
8.500000000000e+10 0 0 -5.0000000000000000e-01 -3.4283920569760004e-15 -5.0000000000000000e-01 -3.4283920569760004e-15 0 0
8.510000000000e+10 0 0 -4.7552825814757976e-01 1.5450849718746454e-01 -4.7552825814757976e-01 1.5450849718746454e-01 0 0
8.520000000000e+10 0 0 -4.0450849718746634e-01 2.9389262614624673e-01 -4.0450849718746634e-01 2.9389262614624673e-01 0 0
8.530000000000e+10 0 0 -2.9389262614623146e-01 4.0450849718747744e-01 -2.9389262614623146e-01 4.0450849718747744e-01 0 0
8.540000000000e+10 0 0 -1.5450849718747361e-01 4.7552825814757682e-01 -1.5450849718747361e-01 4.7552825814757682e-01 0 0
8.550000000000e+10 0 0 -6.1235434860550599e-15 5.0000000000000000e-01 -6.1235434860550599e-15 5.0000000000000000e-01 0 0
8.560000000000e+10 0 0 1.5450849718746196e-01 4.7552825814758060e-01 1.5450849718746196e-01 4.7552825814758060e-01 0 0
8.570000000000e+10 0 0 2.9389262614624451e-01 4.0450849718746790e-01 2.9389262614624451e-01 4.0450849718746790e-01 0 0
8.580000000000e+10 0 0 4.0450849718747584e-01 2.9389262614623363e-01 4.0450849718747584e-01 2.9389262614623363e-01 0 0
8.590000000000e+10 0 0 4.7552825814757599e-01 1.5450849718747617e-01 4.7552825814757599e-01 1.5450849718747617e-01 0 0
8.600000000000e+10 0 0 5.0000000000000000e-01 8.8186949151341202e-15 5.0000000000000000e-01 8.8186949151341202e-15 0 0
8.610000000000e+10 0 0 4.7552825814758143e-01 -1.5450849718745940e-01 4.7552825814758143e-01 -1.5450849718745940e-01 0 0
8.620000000000e+10 0 0 4.0450849718746951e-01 -2.9389262614624234e-01 4.0450849718746951e-01 -2.9389262614624234e-01 0 0
8.630000000000e+10 0 0 2.9389262614623579e-01 -4.0450849718747428e-01 2.9389262614623579e-01 -4.0450849718747428e-01 0 0
8.640000000000e+10 0 0 1.5450849718747875e-01 -4.7552825814757516e-01 1.5450849718747875e-01 -4.7552825814757516e-01 0 0
8.650000000000e+10 0 0 1.1513846344213180e-14 -5.0000000000000000e-01 1.1513846344213180e-14 -5.0000000000000000e-01 0 0
8.660000000000e+10 0 0 -1.5450849718748388e-01 -4.7552825814757349e-01 -1.5450849718748388e-01 -4.7552825814757349e-01 0 0
8.670000000000e+10 0 0 -2.9389262614624018e-01 -4.0450849718747112e-01 -2.9389262614624018e-01 -4.0450849718747112e-01 0 0
8.680000000000e+10 0 0 -4.0450849718747267e-01 -2.9389262614623801e-01 -4.0450849718747267e-01 -2.9389262614623801e-01 0 0
8.690000000000e+10 0 0 -4.7552825814758309e-01 -1.5450849718745427e-01 -4.7552825814758309e-01 -1.5450849718745427e-01 0 0
8.700000000000e+10 0 0 -5.0000000000000000e-01 1.4212711657111770e-14 -5.0000000000000000e-01 1.4212711657111770e-14 0 0
8.710000000000e+10 0 0 -4.7552825814757432e-01 1.5450849718748130e-01 -4.7552825814757432e-01 1.5450849718748130e-01 0 0
8.720000000000e+10 0 0 -4.0450849718747267e-01 2.9389262614623801e-01 -4.0450849718747267e-01 2.9389262614623801e-01 0 0
8.730000000000e+10 0 0 -2.9389262614624018e-01 4.0450849718747112e-01 -2.9389262614624018e-01 4.0450849718747112e-01 0 0
8.740000000000e+10 0 0 -1.5450849718745685e-01 4.7552825814758226e-01 -1.5450849718745685e-01 4.7552825814758226e-01 0 0
8.750000000000e+10 0 0 -1.6904149202371297e-14 5.0000000000000000e-01 -1.6904149202371297e-14 5.0000000000000000e-01 0 0
8.760000000000e+10 0 0 1.5450849718747875e-01 4.7552825814757516e-01 1.5450849718747875e-01 4.7552825814757516e-01 0 0
8.770000000000e+10 0 0 2.9389262614623579e-01 4.0450849718747423e-01 2.9389262614623579e-01 4.0450849718747423e-01 0 0
8.780000000000e+10 0 0 4.0450849718746951e-01 2.9389262614624234e-01 4.0450849718746951e-01 2.9389262614624234e-01 0 0
8.790000000000e+10 0 0 4.7552825814757266e-01 1.5450849718748644e-01 4.7552825814757266e-01 1.5450849718748644e-01 0 0
8.800000000000e+10 0 0 5.0000000000000000e-01 -8.8224087989536493e-15 5.0000000000000000e-01 -8.8224087989536493e-15 0 0
8.810000000000e+10 0 0 4.7552825814756722e-01 -1.5450849718750320e-01 4.7552825814756722e-01 -1.5450849718750320e-01 0 0
8.820000000000e+10 0 0 4.0450849718747584e-01 -2.9389262614623363e-01 4.0450849718747584e-01 -2.9389262614623363e-01 0 0
8.830000000000e+10 0 0 2.9389262614622153e-01 -4.0450849718748461e-01 2.9389262614622153e-01 -4.0450849718748461e-01 0 0
8.840000000000e+10 0 0 1.5450849718746196e-01 -4.7552825814758060e-01 1.5450849718746196e-01 -4.7552825814758060e-01 0 0
8.850000000000e+10 0 0 -6.1272573698745898e-15 -5.0000000000000000e-01 -6.1272573698745898e-15 -5.0000000000000000e-01 0 0
8.860000000000e+10 0 0 -1.5450849718747361e-01 -4.7552825814757682e-01 -1.5450849718747361e-01 -4.7552825814757682e-01 0 0
8.870000000000e+10 0 0 -2.9389262614625444e-01 -4.0450849718746074e-01 -2.9389262614625444e-01 -4.0450849718746074e-01 0 0
8.880000000000e+10 0 0 -4.0450849718746634e-01 -2.9389262614624673e-01 -4.0450849718746634e-01 -2.9389262614624673e-01 0 0
8.890000000000e+10 0 0 -4.7552825814757976e-01 -1.5450849718746454e-01 -4.7552825814757976e-01 -1.5450849718746454e-01 0 0
8.900000000000e+10 0 0 -5.0000000000000000e-01 3.4321059407955307e-15 -5.0000000000000000e-01 3.4321059407955307e-15 0 0
8.910000000000e+10 0 0 -4.7552825814756888e-01 1.5450849718749810e-01 -4.7552825814756888e-01 1.5450849718749810e-01 0 0
8.920000000000e+10 0 0 -4.0450849718747900e-01 2.9389262614622924e-01 -4.0450849718747900e-01 2.9389262614622924e-01 0 0
8.930000000000e+10 0 0 -2.9389262614622591e-01 4.0450849718748144e-01 -2.9389262614622591e-01 4.0450849718748144e-01 0 0
8.940000000000e+10 0 0 -1.5450849718746709e-01 4.7552825814757893e-01 -1.5450849718746709e-01 4.7552825814757893e-01 0 0
8.950000000000e+10 0 0 7.3695451171647115e-16 5.0000000000000000e-01 7.3695451171647115e-16 5.0000000000000000e-01 0 0
8.960000000000e+10 0 0 1.5450849718746851e-01 4.7552825814757849e-01 1.5450849718746851e-01 4.7552825814757849e-01 0 0
8.970000000000e+10 0 0 2.9389262614625011e-01 4.0450849718746390e-01 2.9389262614625011e-01 4.0450849718746390e-01 0 0
8.980000000000e+10 0 0 4.0450849718746318e-01 2.9389262614625106e-01 4.0450849718746318e-01 2.9389262614625106e-01 0 0
8.990000000000e+10 0 0 4.7552825814757810e-01 1.5450849718746965e-01 4.7552825814757810e-01 1.5450849718746965e-01 0 0
9.000000000000e+10 0 0 5.0000000000000000e-01 1.9581969173625882e-15 5.0000000000000000e-01 1.9581969173625882e-15 0 0
9.010000000000e+10 0 0 4.7552825814757055e-01 -1.5450849718749296e-01 4.7552825814757055e-01 -1.5450849718749296e-01 0 0
9.020000000000e+10 0 0 4.0450849718748216e-01 -2.9389262614622491e-01 4.0450849718748216e-01 -2.9389262614622491e-01 0 0
9.030000000000e+10 0 0 2.9389262614623024e-01 -4.0450849718747828e-01 2.9389262614623024e-01 -4.0450849718747828e-01 0 0
9.040000000000e+10 0 0 1.5450849718747223e-01 -4.7552825814757727e-01 1.5450849718747223e-01 -4.7552825814757727e-01 0 0
9.050000000000e+10 0 0 4.6533483464416481e-15 -5.0000000000000000e-01 4.6533483464416481e-15 -5.0000000000000000e-01 0 0
9.060000000000e+10 0 0 -1.5450849718746337e-01 -4.7552825814758015e-01 -1.5450849718746337e-01 -4.7552825814758015e-01 0 0
9.070000000000e+10 0 0 -2.9389262614624573e-01 -4.0450849718746706e-01 -2.9389262614624573e-01 -4.0450849718746706e-01 0 0
9.080000000000e+10 0 0 -4.0450849718746001e-01 -2.9389262614625544e-01 -4.0450849718746001e-01 -2.9389262614625544e-01 0 0
9.090000000000e+10 0 0 -4.7552825814757643e-01 -1.5450849718747478e-01 -4.7552825814757643e-01 -1.5450849718747478e-01 0 0
9.100000000000e+10 0 0 -5.0000000000000000e-01 2.1073209654883301e-14 -5.0000000000000000e-01 2.1073209654883301e-14 0 0
9.110000000000e+10 0 0 -4.7552825814757221e-01 1.5450849718748783e-01 -4.7552825814757221e-01 1.5450849718748783e-01 0 0
9.120000000000e+10 0 0 -4.0450849718746867e-01 2.9389262614624356e-01 -4.0450849718746867e-01 2.9389262614624356e-01 0 0
9.130000000000e+10 0 0 -2.9389262614623463e-01 4.0450849718747511e-01 -2.9389262614623463e-01 4.0450849718747511e-01 0 0
9.140000000000e+10 0 0 -1.5450849718745033e-01 4.7552825814758437e-01 -1.5450849718745033e-01 4.7552825814758437e-01 0 0
9.150000000000e+10 0 0 -1.0043651204599767e-14 5.0000000000000000e-01 -1.0043651204599767e-14 5.0000000000000000e-01 0 0
9.160000000000e+10 0 0 1.5450849718748527e-01 4.7552825814757305e-01 1.5450849718748527e-01 4.7552825814757305e-01 0 0
9.170000000000e+10 0 0 2.9389262614624134e-01 4.0450849718747023e-01 2.9389262614624134e-01 4.0450849718747023e-01 0 0
9.180000000000e+10 0 0 4.0450849718749027e-01 2.9389262614621381e-01 4.0450849718749027e-01 2.9389262614621381e-01 0 0
9.190000000000e+10 0 0 4.7552825814757477e-01 1.5450849718747992e-01 4.7552825814757477e-01 1.5450849718747992e-01 0 0
9.200000000000e+10 0 0 5.0000000000000000e-01 -1.5682906796725182e-14 5.0000000000000000e-01 -1.5682906796725182e-14 0 0
9.210000000000e+10 0 0 4.7552825814757388e-01 -1.5450849718748272e-01 4.7552825814757388e-01 -1.5450849718748272e-01 0 0
9.220000000000e+10 0 0 4.0450849718747178e-01 -2.9389262614623918e-01 4.0450849718747178e-01 -2.9389262614623918e-01 0 0
9.230000000000e+10 0 0 2.9389262614623896e-01 -4.0450849718747195e-01 2.9389262614623896e-01 -4.0450849718747195e-01 0 0
9.240000000000e+10 0 0 1.5450849718745543e-01 -4.7552825814758271e-01 1.5450849718745543e-01 -4.7552825814758271e-01 0 0
9.250000000000e+10 0 0 1.5433954062757884e-14 -5.0000000000000000e-01 1.5433954062757884e-14 -5.0000000000000000e-01 0 0
9.260000000000e+10 0 0 -1.5450849718748014e-01 -4.7552825814757471e-01 -1.5450849718748014e-01 -4.7552825814757471e-01 0 0
9.270000000000e+10 0 0 -2.9389262614623701e-01 -4.0450849718747339e-01 -2.9389262614623701e-01 -4.0450849718747339e-01 0 0
9.280000000000e+10 0 0 -4.0450849718748710e-01 -2.9389262614621819e-01 -4.0450849718748710e-01 -2.9389262614621819e-01 0 0
9.290000000000e+10 0 0 -4.7552825814757310e-01 -1.5450849718748502e-01 -4.7552825814757310e-01 -1.5450849718748502e-01 0 0
9.300000000000e+10 0 0 -5.0000000000000000e-01 1.0292603938567062e-14 -5.0000000000000000e-01 1.0292603938567062e-14 0 0
9.310000000000e+10 0 0 -4.7552825814757554e-01 1.5450849718747758e-01 -4.7552825814757554e-01 1.5450849718747758e-01 0 0
9.320000000000e+10 0 0 -4.0450849718747500e-01 2.9389262614623479e-01 -4.0450849718747500e-01 2.9389262614623479e-01 0 0
9.330000000000e+10 0 0 -2.9389262614624334e-01 4.0450849718746879e-01 -2.9389262614624334e-01 4.0450849718746879e-01 0 0
9.340000000000e+10 0 0 -1.5450849718746057e-01 4.7552825814758104e-01 -1.5450849718746057e-01 4.7552825814758104e-01 0 0
9.350000000000e+10 0 0 -2.0824256920916007e-14 5.0000000000000000e-01 -2.0824256920916007e-14 5.0000000000000000e-01 0 0
9.360000000000e+10 0 0 1.5450849718747503e-01 4.7552825814757638e-01 1.5450849718747503e-01 4.7552825814757638e-01 0 0
9.370000000000e+10 0 0 2.9389262614623263e-01 4.0450849718747656e-01 2.9389262614623263e-01 4.0450849718747656e-01 0 0
9.380000000000e+10 0 0 4.0450849718748394e-01 2.9389262614622252e-01 4.0450849718748394e-01 2.9389262614622252e-01 0 0
9.390000000000e+10 0 0 4.7552825814758021e-01 1.5450849718746312e-01 4.7552825814758021e-01 1.5450849718746312e-01 0 0
9.400000000000e+10 0 0 5.0000000000000000e-01 -4.9023010804089429e-15 5.0000000000000000e-01 -4.9023010804089429e-15 0 0
9.410000000000e+10 0 0 4.7552825814756838e-01 -1.5450849718749948e-01 4.7552825814756838e-01 -1.5450849718749948e-01 0 0
9.420000000000e+10 0 0 4.0450849718747817e-01 -2.9389262614623046e-01 4.0450849718747817e-01 -2.9389262614623046e-01 0 0
9.430000000000e+10 0 0 2.9389262614622469e-01 -4.0450849718748233e-01 2.9389262614622469e-01 -4.0450849718748233e-01 0 0
9.440000000000e+10 0 0 1.5450849718746570e-01 -4.7552825814757937e-01 1.5450849718746570e-01 -4.7552825814757937e-01 0 0
9.450000000000e+10 0 0 -2.2071496513298835e-15 -5.0000000000000000e-01 -2.2071496513298835e-15 -5.0000000000000000e-01 0 0
9.460000000000e+10 0 0 -1.5450849718746990e-01 -4.7552825814757804e-01 -1.5450849718746990e-01 -4.7552825814757804e-01 0 0
9.470000000000e+10 0 0 -2.9389262614625128e-01 -4.0450849718746301e-01 -2.9389262614625128e-01 -4.0450849718746301e-01 0 0
9.480000000000e+10 0 0 -4.0450849718748072e-01 -2.9389262614622691e-01 -4.0450849718748072e-01 -2.9389262614622691e-01 0 0
9.490000000000e+10 0 0 -4.7552825814757854e-01 -1.5450849718746826e-01 -4.7552825814757854e-01 -1.5450849718746826e-01 0 0
9.500000000000e+10 0 0 -5.0000000000000000e-01 -4.8800177774917623e-16 -5.0000000000000000e-01 -4.8800177774917623e-16 0 0
9.510000000000e+10 0 0 -4.7552825814757005e-01 1.5450849718749435e-01 -4.7552825814757005e-01 1.5450849718749435e-01 0 0
9.520000000000e+10 0 0 -4.0450849718748133e-01 2.9389262614622608e-01 -4.0450849718748133e-01 2.9389262614622608e-01 0 0
9.530000000000e+10 0 0 -2.9389262614622907e-01 4.0450849718747917e-01 -2.9389262614622907e-01 4.0450849718747917e-01 0 0
9.540000000000e+10 0 0 -1.5450849718747081e-01 4.7552825814757771e-01 -1.5450849718747081e-01 4.7552825814757771e-01 0 0
9.550000000000e+10 0 0 -3.1831532068282359e-15 5.0000000000000000e-01 -3.1831532068282359e-15 5.0000000000000000e-01 0 0
9.560000000000e+10 0 0 1.5450849718746476e-01 4.7552825814757971e-01 1.5450849718746476e-01 4.7552825814757971e-01 0 0
9.570000000000e+10 0 0 2.9389262614624689e-01 4.0450849718746618e-01 2.9389262614624689e-01 4.0450849718746618e-01 0 0
9.580000000000e+10 0 0 4.0450849718747756e-01 2.9389262614623124e-01 4.0450849718747756e-01 2.9389262614623124e-01 0 0
9.590000000000e+10 0 0 4.7552825814757688e-01 1.5450849718747339e-01 4.7552825814757688e-01 1.5450849718747339e-01 0 0
9.600000000000e+10 0 0 5.0000000000000000e-01 5.8783046359072950e-15 5.0000000000000000e-01 5.8783046359072950e-15 0 0
9.610000000000e+10 0 0 4.7552825814757177e-01 -1.5450849718748924e-01 4.7552825814757177e-01 -1.5450849718748924e-01 0 0
9.620000000000e+10 0 0 4.0450849718748449e-01 -2.9389262614622175e-01 4.0450849718748449e-01 -2.9389262614622175e-01 0 0
9.630000000000e+10 0 0 2.9389262614623346e-01 -4.0450849718747600e-01 2.9389262614623346e-01 -4.0450849718747600e-01 0 0
9.640000000000e+10 0 0 1.5450849718747595e-01 -4.7552825814757604e-01 1.5450849718747595e-01 -4.7552825814757604e-01 0 0
9.650000000000e+10 0 0 8.5734560649863545e-15 -5.0000000000000000e-01 8.5734560649863545e-15 -5.0000000000000000e-01 0 0
9.660000000000e+10 0 0 -1.5450849718745963e-01 -4.7552825814758137e-01 -1.5450849718745963e-01 -4.7552825814758137e-01 0 0
9.670000000000e+10 0 0 -2.9389262614624256e-01 -4.0450849718746934e-01 -2.9389262614624256e-01 -4.0450849718746934e-01 0 0
9.680000000000e+10 0 0 -4.0450849718747439e-01 -2.9389262614623562e-01 -4.0450849718747439e-01 -2.9389262614623562e-01 0 0
9.690000000000e+10 0 0 -4.7552825814757521e-01 -1.5450849718747850e-01 -4.7552825814757521e-01 -1.5450849718747850e-01 0 0
9.700000000000e+10 0 0 -5.0000000000000000e-01 1.7153101936338592e-14 -5.0000000000000000e-01 1.7153101936338592e-14 0 0
9.710000000000e+10 0 0 -4.7552825814757338e-01 1.5450849718748411e-01 -4.7552825814757338e-01 1.5450849718748411e-01 0 0
9.720000000000e+10 0 0 -4.0450849718747095e-01 2.9389262614624034e-01 -4.0450849718747095e-01 2.9389262614624034e-01 0 0
9.730000000000e+10 0 0 -2.9389262614623779e-01 4.0450849718747284e-01 -2.9389262614623779e-01 4.0450849718747284e-01 0 0
9.740000000000e+10 0 0 -1.5450849718745405e-01 4.7552825814758315e-01 -1.5450849718745405e-01 4.7552825814758315e-01 0 0
9.750000000000e+10 0 0 -1.3963758923144473e-14 5.0000000000000000e-01 -1.3963758923144473e-14 5.0000000000000000e-01 0 0
9.760000000000e+10 0 0 1.5450849718748155e-01 4.7552825814757427e-01 1.5450849718748155e-01 4.7552825814757427e-01 0 0
9.770000000000e+10 0 0 2.9389262614623818e-01 4.0450849718747250e-01 2.9389262614623818e-01 4.0450849718747250e-01 0 0
9.780000000000e+10 0 0 4.0450849718748794e-01 2.9389262614621697e-01 4.0450849718748794e-01 2.9389262614621697e-01 0 0
9.790000000000e+10 0 0 4.7552825814757355e-01 1.5450849718748363e-01 4.7552825814757355e-01 1.5450849718748363e-01 0 0
9.800000000000e+10 0 0 5.0000000000000000e-01 -1.1762799078180474e-14 5.0000000000000000e-01 -1.1762799078180474e-14 0 0
9.810000000000e+10 0 0 4.7552825814757510e-01 -1.5450849718747897e-01 4.7552825814757510e-01 -1.5450849718747897e-01 0 0
9.820000000000e+10 0 0 4.0450849718747411e-01 -2.9389262614623601e-01 4.0450849718747411e-01 -2.9389262614623601e-01 0 0
9.830000000000e+10 0 0 2.9389262614624218e-01 -4.0450849718746967e-01 2.9389262614624218e-01 -4.0450849718746967e-01 0 0
9.840000000000e+10 0 0 1.5450849718745918e-01 -4.7552825814758154e-01 1.5450849718745918e-01 -4.7552825814758154e-01 0 0
9.850000000000e+10 0 0 -9.0676476491014150e-15 -5.0000000000000000e-01 -9.0676476491014150e-15 -5.0000000000000000e-01 0 0
9.860000000000e+10 0 0 -1.5450849718747642e-01 -4.7552825814757593e-01 -1.5450849718747642e-01 -4.7552825814757593e-01 0 0
9.870000000000e+10 0 0 -2.9389262614623385e-01 -4.0450849718747572e-01 -2.9389262614623385e-01 -4.0450849718747572e-01 0 0
9.880000000000e+10 0 0 -4.0450849718748477e-01 -2.9389262614622136e-01 -4.0450849718748477e-01 -2.9389262614622136e-01 0 0
9.890000000000e+10 0 0 -4.7552825814757188e-01 -1.5450849718748877e-01 -4.7552825814757188e-01 -1.5450849718748877e-01 0 0
9.900000000000e+10 0 0 -5.0000000000000000e-01 6.3724962200223547e-15 -5.0000000000000000e-01 6.3724962200223547e-15 0 0
9.910000000000e+10 0 0 -4.7552825814757677e-01 1.5450849718747386e-01 -4.7552825814757677e-01 1.5450849718747386e-01 0 0
9.920000000000e+10 0 0 -4.0450849718747728e-01 2.9389262614623163e-01 -4.0450849718747728e-01 2.9389262614623163e-01 0 0
9.930000000000e+10 0 0 -2.9389262614624651e-01 4.0450849718746651e-01 -2.9389262614624651e-01 4.0450849718746651e-01 0 0
9.940000000000e+10 0 0 -1.5450849718746429e-01 4.7552825814757982e-01 -1.5450849718746429e-01 4.7552825814757982e-01 0 0
9.950000000000e+10 0 0 3.6773447909432953e-15 5.0000000000000000e-01 3.6773447909432953e-15 5.0000000000000000e-01 0 0
9.960000000000e+10 0 0 1.5450849718747128e-01 4.7552825814757760e-01 1.5450849718747128e-01 4.7552825814757760e-01 0 0
9.970000000000e+10 0 0 2.9389262614622946e-01 4.0450849718747889e-01 2.9389262614622946e-01 4.0450849718747889e-01 0 0
9.980000000000e+10 0 0 4.0450849718748161e-01 2.9389262614622569e-01 4.0450849718748161e-01 2.9389262614622569e-01 0 0
9.990000000000e+10 0 0 4.7552825814757904e-01 1.5450849718746687e-01 4.7552825814757904e-01 1.5450849718746687e-01 0 0
1.000000000000e+11 0 0 5.0000000000000000e-01 -9.8219336186423597e-16 5.0000000000000000e-01 -9.8219336186423597e-16 0 0
1.001000000000e+11 0 0 4.7552825814756960e-01 -1.5450849718749576e-01 4.7552825814756960e-01 -1.5450849718749576e-01 0 0
1.002000000000e+11 0 0 4.0450849718748044e-01 -2.9389262614622730e-01 4.0450849718748044e-01 -2.9389262614622730e-01 0 0
1.003000000000e+11 0 0 2.9389262614622791e-01 -4.0450849718748000e-01 2.9389262614622791e-01 -4.0450849718748000e-01 0 0
1.004000000000e+11 0 0 1.5450849718746942e-01 -4.7552825814757815e-01 1.5450849718746942e-01 -4.7552825814757815e-01 0 0
1.005000000000e+11 0 0 -2.6708751363189183e-14 -5.0000000000000000e-01 -2.6708751363189183e-14 -5.0000000000000000e-01 0 0
1.006000000000e+11 0 0 -1.5450849718746618e-01 -4.7552825814757926e-01 -1.5450849718746618e-01 -4.7552825814757926e-01 0 0
1.007000000000e+11 0 0 -2.9389262614624811e-01 -4.0450849718746534e-01 -2.9389262614624811e-01 -4.0450849718746534e-01 0 0
1.008000000000e+11 0 0 -4.0450849718747844e-01 -2.9389262614623007e-01 -4.0450849718747844e-01 -2.9389262614623007e-01 0 0
1.009000000000e+11 0 0 -4.7552825814757732e-01 -1.5450849718747198e-01 -4.7552825814757732e-01 -1.5450849718747198e-01 0 0
1.010000000000e+11 0 0 -5.0000000000000000e-01 -4.4081094962938832e-15 -5.0000000000000000e-01 -4.4081094962938832e-15 0 0
1.011000000000e+11 0 0 -4.7552825814757127e-01 1.5450849718749063e-01 -4.7552825814757127e-01 1.5450849718749063e-01 0 0
1.012000000000e+11 0 0 -4.0450849718748361e-01 2.9389262614622291e-01 -4.0450849718748361e-01 2.9389262614622291e-01 0 0
1.013000000000e+11 0 0 -2.9389262614623224e-01 4.0450849718747683e-01 -2.9389262614623224e-01 4.0450849718747683e-01 0 0
1.014000000000e+11 0 0 -1.5450849718747456e-01 4.7552825814757649e-01 -1.5450849718747456e-01 4.7552825814757649e-01 0 0
1.015000000000e+11 0 0 2.1318448505031064e-14 5.0000000000000000e-01 2.1318448505031064e-14 5.0000000000000000e-01 0 0
1.016000000000e+11 0 0 1.5450849718746104e-01 4.7552825814758093e-01 1.5450849718746104e-01 4.7552825814758093e-01 0 0
1.017000000000e+11 0 0 2.9389262614624373e-01 4.0450849718746851e-01 2.9389262614624373e-01 4.0450849718746851e-01 0 0
1.018000000000e+11 0 0 4.0450849718747528e-01 2.9389262614623440e-01 4.0450849718747528e-01 2.9389262614623440e-01 0 0
1.019000000000e+11 0 0 4.7552825814757566e-01 1.5450849718747711e-01 4.7552825814757566e-01 1.5450849718747711e-01 0 0
1.020000000000e+11 0 0 5.0000000000000000e-01 9.7984123544520014e-15 5.0000000000000000e-01 9.7984123544520014e-15 0 0
1.021000000000e+11 0 0 4.7552825814757294e-01 -1.5450849718748549e-01 4.7552825814757294e-01 -1.5450849718748549e-01 0 0
1.022000000000e+11 0 0 4.0450849718748677e-01 -2.9389262614621858e-01 4.0450849718748677e-01 -2.9389262614621858e-01 0 0
1.023000000000e+11 0 0 2.9389262614623662e-01 -4.0450849718747367e-01 2.9389262614623662e-01 -4.0450849718747367e-01 0 0
1.024000000000e+11 0 0 1.5450849718747967e-01 -4.7552825814757482e-01 1.5450849718747967e-01 -4.7552825814757482e-01 0 0
1.025000000000e+11 0 0 -1.5928145646872945e-14 -5.0000000000000000e-01 -1.5928145646872945e-14 -5.0000000000000000e-01 0 0
1.026000000000e+11 0 0 -1.5450849718745591e-01 -4.7552825814758259e-01 -1.5450849718745591e-01 -4.7552825814758259e-01 0 0
1.027000000000e+11 0 0 -2.9389262614623940e-01 -4.0450849718747167e-01 -2.9389262614623940e-01 -4.0450849718747167e-01 0 0
1.028000000000e+11 0 0 -4.0450849718748882e-01 -2.9389262614621581e-01 -4.0450849718748882e-01 -2.9389262614621581e-01 0 0
1.029000000000e+11 0 0 -4.7552825814757399e-01 -1.5450849718748225e-01 -4.7552825814757399e-01 -1.5450849718748225e-01 0 0
1.030000000000e+11 0 0 -5.0000000000000000e-01 1.3232994217793886e-14 -5.0000000000000000e-01 1.3232994217793886e-14 0 0
1.031000000000e+11 0 0 -4.7552825814757460e-01 1.5450849718748039e-01 -4.7552825814757460e-01 1.5450849718748039e-01 0 0
1.032000000000e+11 0 0 -4.0450849718745657e-01 2.9389262614626022e-01 -4.0450849718745657e-01 2.9389262614626022e-01 0 0
1.033000000000e+11 0 0 -2.9389262614624095e-01 4.0450849718747051e-01 -2.9389262614624095e-01 4.0450849718747051e-01 0 0
1.034000000000e+11 0 0 -1.5450849718745777e-01 4.7552825814758198e-01 -1.5450849718745777e-01 4.7552825814758198e-01 0 0
1.035000000000e+11 0 0 1.0537842788714826e-14 5.0000000000000000e-01 1.0537842788714826e-14 5.0000000000000000e-01 0 0
1.036000000000e+11 0 0 1.5450849718747781e-01 4.7552825814757543e-01 1.5450849718747781e-01 4.7552825814757543e-01 0 0
1.037000000000e+11 0 0 2.9389262614623501e-01 4.0450849718747484e-01 2.9389262614623501e-01 4.0450849718747484e-01 0 0
1.038000000000e+11 0 0 4.0450849718748566e-01 2.9389262614622014e-01 4.0450849718748566e-01 2.9389262614622014e-01 0 0
1.039000000000e+11 0 0 4.7552825814757232e-01 1.5450849718748735e-01 4.7552825814757232e-01 1.5450849718748735e-01 0 0
1.040000000000e+11 0 0 5.0000000000000000e-01 -7.8426913596357665e-15 5.0000000000000000e-01 -7.8426913596357665e-15 0 0
1.041000000000e+11 0 0 4.7552825814757627e-01 -1.5450849718747525e-01 4.7552825814757627e-01 -1.5450849718747525e-01 0 0
1.042000000000e+11 0 0 4.0450849718745974e-01 -2.9389262614625583e-01 4.0450849718745974e-01 -2.9389262614625583e-01 0 0
1.043000000000e+11 0 0 2.9389262614624534e-01 -4.0450849718746734e-01 2.9389262614624534e-01 -4.0450849718746734e-01 0 0
1.044000000000e+11 0 0 1.5450849718746290e-01 -4.7552825814758032e-01 1.5450849718746290e-01 -4.7552825814758032e-01 0 0
1.045000000000e+11 0 0 -5.1475399305567079e-15 -5.0000000000000000e-01 -5.1475399305567079e-15 -5.0000000000000000e-01 0 0
1.046000000000e+11 0 0 -1.5450849718747270e-01 -4.7552825814757710e-01 -1.5450849718747270e-01 -4.7552825814757710e-01 0 0
1.047000000000e+11 0 0 -2.9389262614623068e-01 -4.0450849718747800e-01 -2.9389262614623068e-01 -4.0450849718747800e-01 0 0
1.048000000000e+11 0 0 -4.0450849718748244e-01 -2.9389262614622452e-01 -4.0450849718748244e-01 -2.9389262614622452e-01 0 0
1.049000000000e+11 0 0 -4.7552825814757066e-01 -1.5450849718749249e-01 -4.7552825814757066e-01 -1.5450849718749249e-01 0 0
1.050000000000e+11 0 0 -5.0000000000000000e-01 2.4523885014776480e-15 -5.0000000000000000e-01 2.4523885014776480e-15 0 0
1.051000000000e+11 0 0 -4.7552825814757793e-01 1.5450849718747012e-01 -4.7552825814757793e-01 1.5450849718747012e-01 0 0
1.052000000000e+11 0 0 -4.0450849718746290e-01 2.9389262614625145e-01 -4.0450849718746290e-01 2.9389262614625145e-01 0 0
1.053000000000e+11 0 0 -2.9389262614624967e-01 4.0450849718746418e-01 -2.9389262614624967e-01 4.0450849718746418e-01 0 0
1.054000000000e+11 0 0 -1.5450849718746804e-01 4.7552825814757865e-01 -1.5450849718746804e-01 4.7552825814757865e-01 0 0
1.055000000000e+11 0 0 -2.4276292760141136e-16 5.0000000000000000e-01 -2.4276292760141136e-16 5.0000000000000000e-01 0 0
1.056000000000e+11 0 0 1.5450849718746756e-01 4.7552825814757876e-01 1.5450849718746756e-01 4.7552825814757876e-01 0 0
1.057000000000e+11 0 0 2.9389262614624928e-01 4.0450849718746446e-01 2.9389262614624928e-01 4.0450849718746446e-01 0 0
1.058000000000e+11 0 0 4.0450849718747928e-01 2.9389262614622885e-01 4.0450849718747928e-01 2.9389262614622885e-01 0 0
1.059000000000e+11 0 0 4.7552825814758659e-01 1.5450849718744356e-01 4.7552825814758659e-01 1.5450849718744356e-01 0 0
1.060000000000e+11 0 0 5.0000000000000000e-01 2.9379143566804710e-15 5.0000000000000000e-01 2.9379143566804710e-15 0 0
1.061000000000e+11 0 0 4.7552825814757083e-01 -1.5450849718749202e-01 4.7552825814757083e-01 -1.5450849718749202e-01 0 0
1.062000000000e+11 0 0 4.0450849718746607e-01 -2.9389262614624712e-01 4.0450849718746607e-01 -2.9389262614624712e-01 0 0
1.063000000000e+11 0 0 2.9389262614623107e-01 -4.0450849718747772e-01 2.9389262614623107e-01 -4.0450849718747772e-01 0 0
1.064000000000e+11 0 0 1.5450849718747314e-01 -4.7552825814757699e-01 1.5450849718747314e-01 -4.7552825814757699e-01 0 0
1.065000000000e+11 0 0 -2.2788643644644477e-14 -5.0000000000000000e-01 -2.2788643644644477e-14 -5.0000000000000000e-01 0 0
1.066000000000e+11 0 0 -1.5450849718746243e-01 -4.7552825814758043e-01 -1.5450849718746243e-01 -4.7552825814758043e-01 0 0
1.067000000000e+11 0 0 -2.9389262614624495e-01 -4.0450849718746762e-01 -2.9389262614624495e-01 -4.0450849718746762e-01 0 0
1.068000000000e+11 0 0 -4.0450849718747611e-01 -2.9389262614623324e-01 -4.0450849718747611e-01 -2.9389262614623324e-01 0 0
1.069000000000e+11 0 0 -4.7552825814758493e-01 -1.5450849718744869e-01 -4.7552825814758493e-01 -1.5450849718744869e-01 0 0
1.070000000000e+11 0 0 -5.0000000000000000e-01 -8.3282172148385904e-15 -5.0000000000000000e-01 -8.3282172148385904e-15 0 0
1.071000000000e+11 0 0 -4.7552825814757249e-01 1.5450849718748691e-01 -4.7552825814757249e-01 1.5450849718748691e-01 0 0
1.072000000000e+11 0 0 -4.0450849718746923e-01 2.9389262614624273e-01 -4.0450849718746923e-01 2.9389262614624273e-01 0 0
1.073000000000e+11 0 0 -2.9389262614623540e-01 4.0450849718747456e-01 -2.9389262614623540e-01 4.0450849718747456e-01 0 0
1.074000000000e+11 0 0 -1.5450849718747828e-01 4.7552825814757532e-01 -1.5450849718747828e-01 4.7552825814757532e-01 0 0
1.075000000000e+11 0 0 1.7398340786486358e-14 5.0000000000000000e-01 1.7398340786486358e-14 5.0000000000000000e-01 0 0
1.076000000000e+11 0 0 1.5450849718745732e-01 4.7552825814758209e-01 1.5450849718745732e-01 4.7552825814758209e-01 0 0
1.077000000000e+11 0 0 2.9389262614624057e-01 4.0450849718747078e-01 2.9389262614624057e-01 4.0450849718747078e-01 0 0
1.078000000000e+11 0 0 4.0450849718747295e-01 2.9389262614623757e-01 4.0450849718747295e-01 2.9389262614623757e-01 0 0
1.079000000000e+11 0 0 4.7552825814758326e-01 1.5450849718745380e-01 4.7552825814758326e-01 1.5450849718745380e-01 0 0
1.080000000000e+11 0 0 5.0000000000000000e-01 1.3718520072996709e-14 5.0000000000000000e-01 1.3718520072996709e-14 0 0
1.081000000000e+11 0 0 4.7552825814757416e-01 -1.5450849718748177e-01 4.7552825814757416e-01 -1.5450849718748177e-01 0 0
1.082000000000e+11 0 0 4.0450849718747239e-01 -2.9389262614623840e-01 4.0450849718747239e-01 -2.9389262614623840e-01 0 0
1.083000000000e+11 0 0 2.9389262614623979e-01 -4.0450849718747139e-01 2.9389262614623979e-01 -4.0450849718747139e-01 0 0
1.084000000000e+11 0 0 1.5450849718748341e-01 -4.7552825814757366e-01 1.5450849718748341e-01 -4.7552825814757366e-01 0 0
1.085000000000e+11 0 0 -1.2008037928328239e-14 -5.0000000000000000e-01 -1.2008037928328239e-14 -5.0000000000000000e-01 0 0
1.086000000000e+11 0 0 -1.5450849718747922e-01 -4.7552825814757499e-01 -1.5450849718747922e-01 -4.7552825814757499e-01 0 0
1.087000000000e+11 0 0 -2.9389262614623624e-01 -4.0450849718747395e-01 -2.9389262614623624e-01 -4.0450849718747395e-01 0 0
1.088000000000e+11 0 0 -4.0450849718748649e-01 -2.9389262614621897e-01 -4.0450849718748649e-01 -2.9389262614621897e-01 0 0
1.089000000000e+11 0 0 -4.7552825814758160e-01 -1.5450849718745893e-01 -4.7552825814758160e-01 -1.5450849718745893e-01 0 0
1.090000000000e+11 0 0 -5.0000000000000000e-01 9.3128864992491791e-15 -5.0000000000000000e-01 9.3128864992491791e-15 0 0
1.091000000000e+11 0 0 -4.7552825814757582e-01 1.5450849718747664e-01 -4.7552825814757582e-01 1.5450849718747664e-01 0 0
1.092000000000e+11 0 0 -4.0450849718745885e-01 2.9389262614625700e-01 -4.0450849718745885e-01 2.9389262614625700e-01 0 0
1.093000000000e+11 0 0 -2.9389262614624412e-01 4.0450849718746823e-01 -2.9389262614624412e-01 4.0450849718746823e-01 0 0
1.094000000000e+11 0 0 -1.5450849718746151e-01 4.7552825814758076e-01 -1.5450849718746151e-01 4.7552825814758076e-01 0 0
1.095000000000e+11 0 0 6.6177350701701197e-15 5.0000000000000000e-01 6.6177350701701197e-15 5.0000000000000000e-01 0 0
1.096000000000e+11 0 0 1.5450849718747409e-01 4.7552825814757665e-01 1.5450849718747409e-01 4.7552825814757665e-01 0 0
1.097000000000e+11 0 0 2.9389262614623185e-01 4.0450849718747717e-01 2.9389262614623185e-01 4.0450849718747717e-01 0 0
1.098000000000e+11 0 0 4.0450849718748333e-01 2.9389262614622330e-01 4.0450849718748333e-01 2.9389262614622330e-01 0 0
1.099000000000e+11 0 0 4.7552825814757993e-01 1.5450849718746407e-01 4.7552825814757993e-01 1.5450849718746407e-01 0 0
1.100000000000e+11 0 0 5.0000000000000000e-01 -3.9225836410910602e-15 5.0000000000000000e-01 -3.9225836410910602e-15 0 0
1.101000000000e+11 0 0 4.7552825814757749e-01 -1.5450849718747153e-01 4.7552825814757749e-01 -1.5450849718747153e-01 0 0
1.102000000000e+11 0 0 4.0450849718746201e-01 -2.9389262614625267e-01 4.0450849718746201e-01 -2.9389262614625267e-01 0 0
1.103000000000e+11 0 0 2.9389262614624850e-01 -4.0450849718746507e-01 2.9389262614624850e-01 -4.0450849718746507e-01 0 0
1.104000000000e+11 0 0 1.5450849718746662e-01 -4.7552825814757910e-01 1.5450849718746662e-01 -4.7552825814757910e-01 0 0
1.105000000000e+11 0 0 -1.2274322120120007e-15 -5.0000000000000000e-01 -1.2274322120120007e-15 -5.0000000000000000e-01 0 0
1.106000000000e+11 0 0 -1.5450849718746895e-01 -4.7552825814757832e-01 -1.5450849718746895e-01 -4.7552825814757832e-01 0 0
1.107000000000e+11 0 0 -2.9389262614622746e-01 -4.0450849718748028e-01 -2.9389262614622746e-01 -4.0450849718748028e-01 0 0
1.108000000000e+11 0 0 -4.0450849718748016e-01 -2.9389262614622769e-01 -4.0450849718748016e-01 -2.9389262614622769e-01 0 0
1.109000000000e+11 0 0 -4.7552825814757826e-01 -1.5450849718746920e-01 -4.7552825814757826e-01 -1.5450849718746920e-01 0 0
1.110000000000e+11 0 0 -5.0000000000000000e-01 -1.4677192170670588e-15 -5.0000000000000000e-01 -1.4677192170670588e-15 0 0
1.111000000000e+11 0 0 -4.7552825814757915e-01 1.5450849718746640e-01 -4.7552825814757915e-01 1.5450849718746640e-01 0 0
1.112000000000e+11 0 0 -4.0450849718746518e-01 2.9389262614624828e-01 -4.0450849718746518e-01 2.9389262614624828e-01 0 0
1.113000000000e+11 0 0 -2.9389262614625283e-01 4.0450849718746185e-01 -2.9389262614625283e-01 4.0450849718746185e-01 0 0
1.114000000000e+11 0 0 -1.5450849718747175e-01 4.7552825814757743e-01 -1.5450849718747175e-01 4.7552825814757743e-01 0 0
1.115000000000e+11 0 0 2.4258838784257889e-14 5.0000000000000000e-01 2.4258838784257889e-14 5.0000000000000000e-01 0 0
1.116000000000e+11 0 0 1.5450849718746384e-01 4.7552825814757999e-01 1.5450849718746384e-01 4.7552825814757999e-01 0 0
1.117000000000e+11 0 0 2.9389262614624612e-01 4.0450849718746679e-01 2.9389262614624612e-01 4.0450849718746679e-01 0 0
1.118000000000e+11 0 0 4.0450849718747700e-01 2.9389262614623202e-01 4.0450849718747700e-01 2.9389262614623202e-01 0 0
1.119000000000e+11 0 0 4.7552825814758537e-01 1.5450849718744727e-01 4.7552825814758537e-01 1.5450849718744727e-01 0 0
1.120000000000e+11 0 0 5.0000000000000000e-01 6.8580220752251778e-15 5.0000000000000000e-01 6.8580220752251778e-15 0 0
1.121000000000e+11 0 0 4.7552825814757205e-01 -1.5450849718748830e-01 4.7552825814757205e-01 -1.5450849718748830e-01 0 0
1.122000000000e+11 0 0 4.0450849718746834e-01 -2.9389262614624395e-01 4.0450849718746834e-01 -2.9389262614624395e-01 0 0
1.123000000000e+11 0 0 2.9389262614623424e-01 -4.0450849718747539e-01 2.9389262614623424e-01 -4.0450849718747539e-01 0 0
1.124000000000e+11 0 0 1.5450849718747689e-01 -4.7552825814757577e-01 1.5450849718747689e-01 -4.7552825814757577e-01 0 0
1.125000000000e+11 0 0 -1.8868535926099770e-14 -5.0000000000000000e-01 -1.8868535926099770e-14 -5.0000000000000000e-01 0 0
1.126000000000e+11 0 0 -1.5450849718745871e-01 -4.7552825814758165e-01 -1.5450849718745871e-01 -4.7552825814758165e-01 0 0
1.127000000000e+11 0 0 -2.9389262614624179e-01 -4.0450849718746995e-01 -2.9389262614624179e-01 -4.0450849718746995e-01 0 0
1.128000000000e+11 0 0 -4.0450849718747384e-01 -2.9389262614623640e-01 -4.0450849718747384e-01 -2.9389262614623640e-01 0 0
1.129000000000e+11 0 0 -4.7552825814758370e-01 -1.5450849718745241e-01 -4.7552825814758370e-01 -1.5450849718745241e-01 0 0
1.130000000000e+11 0 0 -5.0000000000000000e-01 -1.2248324933383297e-14 -5.0000000000000000e-01 -1.2248324933383297e-14 0 0
1.131000000000e+11 0 0 -4.7552825814757371e-01 1.5450849718748316e-01 -4.7552825814757371e-01 1.5450849718748316e-01 0 0
1.132000000000e+11 0 0 -4.0450849718747151e-01 2.9389262614623957e-01 -4.0450849718747151e-01 2.9389262614623957e-01 0 0
1.133000000000e+11 0 0 -2.9389262614623857e-01 4.0450849718747223e-01 -2.9389262614623857e-01 4.0450849718747223e-01 0 0
1.134000000000e+11 0 0 -1.5450849718748200e-01 4.7552825814757410e-01 -1.5450849718748200e-01 4.7552825814757410e-01 0 0
1.135000000000e+11 0 0 1.3478233067941651e-14 5.0000000000000000e-01 1.3478233067941651e-14 5.0000000000000000e-01 0 0
1.136000000000e+11 0 0 1.5450849718748061e-01 4.7552825814757455e-01 1.5450849718748061e-01 4.7552825814757455e-01 0 0
1.137000000000e+11 0 0 2.9389262614623740e-01 4.0450849718747312e-01 2.9389262614623740e-01 4.0450849718747312e-01 0 0
1.138000000000e+11 0 0 4.0450849718747067e-01 2.9389262614624079e-01 4.0450849718747067e-01 2.9389262614624079e-01 0 0
1.139000000000e+11 0 0 4.7552825814758204e-01 1.5450849718745754e-01 4.7552825814758204e-01 1.5450849718745754e-01 0 0
1.140000000000e+11 0 0 5.0000000000000000e-01 1.7638627791541416e-14 5.0000000000000000e-01 1.7638627791541416e-14 0 0
1.141000000000e+11 0 0 4.7552825814757538e-01 -1.5450849718747806e-01 4.7552825814757538e-01 -1.5450849718747806e-01 0 0
1.142000000000e+11 0 0 4.0450849718747467e-01 -2.9389262614623524e-01 4.0450849718747467e-01 -2.9389262614623524e-01 0 0
1.143000000000e+11 0 0 2.9389262614624295e-01 -4.0450849718746906e-01 2.9389262614624295e-01 -4.0450849718746906e-01 0 0
1.144000000000e+11 0 0 1.5450849718748713e-01 -4.7552825814757244e-01 1.5450849718748713e-01 -4.7552825814757244e-01 0 0
1.145000000000e+11 0 0 -8.0879302097835323e-15 -5.0000000000000000e-01 -8.0879302097835323e-15 -5.0000000000000000e-01 0 0
1.146000000000e+11 0 0 -1.5450849718750251e-01 -4.7552825814756744e-01 -1.5450849718750251e-01 -4.7552825814756744e-01 0 0
1.147000000000e+11 0 0 -2.9389262614623302e-01 -4.0450849718747628e-01 -2.9389262614623302e-01 -4.0450849718747628e-01 0 0
1.148000000000e+11 0 0 -4.0450849718748422e-01 -2.9389262614622214e-01 -4.0450849718748422e-01 -2.9389262614622214e-01 0 0
1.149000000000e+11 0 0 -4.7552825814758037e-01 -1.5450849718746265e-01 -4.7552825814758037e-01 -1.5450849718746265e-01 0 0
1.150000000000e+11 0 0 -5.0000000000000000e-01 5.3927787807044728e-15 -5.0000000000000000e-01 5.3927787807044728e-15 0 0
1.151000000000e+11 0 0 -4.7552825814757704e-01 1.5450849718747292e-01 -4.7552825814757704e-01 1.5450849718747292e-01 0 0
1.152000000000e+11 0 0 -4.0450849718746112e-01 2.9389262614625383e-01 -4.0450849718746112e-01 2.9389262614625383e-01 0 0
1.153000000000e+11 0 0 -2.9389262614624728e-01 4.0450849718746590e-01 -2.9389262614624728e-01 4.0450849718746590e-01 0 0
1.154000000000e+11 0 0 -1.5450849718746523e-01 4.7552825814757954e-01 -1.5450849718746523e-01 4.7552825814757954e-01 0 0
1.155000000000e+11 0 0 2.6976273516254129e-15 5.0000000000000000e-01 2.6976273516254129e-15 5.0000000000000000e-01 0 0
1.156000000000e+11 0 0 1.5450849718749740e-01 4.7552825814756911e-01 1.5450849718749740e-01 4.7552825814756911e-01 0 0
1.157000000000e+11 0 0 2.9389262614622869e-01 4.0450849718747944e-01 2.9389262614622869e-01 4.0450849718747944e-01 0 0
1.158000000000e+11 0 0 4.0450849718748105e-01 2.9389262614622647e-01 4.0450849718748105e-01 2.9389262614622647e-01 0 0
1.159000000000e+11 0 0 4.7552825814757871e-01 1.5450849718746779e-01 4.7552825814757871e-01 1.5450849718746779e-01 0 0
1.160000000000e+11 0 0 5.0000000000000000e-01 -2.4759225463534308e-18 5.0000000000000000e-01 -2.4759225463534308e-18 0 0
1.161000000000e+11 0 0 4.7552825814757871e-01 -1.5450849718746779e-01 4.7552825814757871e-01 -1.5450849718746779e-01 0 0
1.162000000000e+11 0 0 4.0450849718746434e-01 -2.9389262614624950e-01 4.0450849718746434e-01 -2.9389262614624950e-01 0 0
1.163000000000e+11 0 0 2.9389262614625167e-01 -4.0450849718746273e-01 2.9389262614625167e-01 -4.0450849718746273e-01 0 0
1.164000000000e+11 0 0 1.5450849718747037e-01 -4.7552825814757788e-01 1.5450849718747037e-01 -4.7552825814757788e-01 0 0
1.165000000000e+11 0 0 2.6926755065327061e-15 -5.0000000000000000e-01 2.6926755065327061e-15 -5.0000000000000000e-01 0 0
1.166000000000e+11 0 0 -1.5450849718749227e-01 -4.7552825814757077e-01 -1.5450849718749227e-01 -4.7552825814757077e-01 0 0
1.167000000000e+11 0 0 -2.9389262614622430e-01 -4.0450849718748261e-01 -2.9389262614622430e-01 -4.0450849718748261e-01 0 0
1.168000000000e+11 0 0 -4.0450849718747789e-01 -2.9389262614623085e-01 -4.0450849718747789e-01 -2.9389262614623085e-01 0 0
1.169000000000e+11 0 0 -4.7552825814757704e-01 -1.5450849718747292e-01 -4.7552825814757704e-01 -1.5450849718747292e-01 0 0
1.170000000000e+11 0 0 -5.0000000000000000e-01 -5.3878269356117660e-15 -5.0000000000000000e-01 -5.3878269356117660e-15 0 0
1.171000000000e+11 0 0 -4.7552825814758037e-01 1.5450849718746268e-01 -4.7552825814758037e-01 1.5450849718746268e-01 0 0
1.172000000000e+11 0 0 -4.0450849718746751e-01 2.9389262614624512e-01 -4.0450849718746751e-01 2.9389262614624512e-01 0 0
1.173000000000e+11 0 0 -2.9389262614625605e-01 4.0450849718745957e-01 -2.9389262614625605e-01 4.0450849718745957e-01 0 0
1.174000000000e+11 0 0 -1.5450849718747547e-01 4.7552825814757621e-01 -1.5450849718747547e-01 4.7552825814757621e-01 0 0
1.175000000000e+11 0 0 2.0338731065713183e-14 5.0000000000000000e-01 2.0338731065713183e-14 5.0000000000000000e-01 0 0
1.176000000000e+11 0 0 1.5450849718748713e-01 4.7552825814757244e-01 1.5450849718748713e-01 4.7552825814757244e-01 0 0
1.177000000000e+11 0 0 2.9389262614624295e-01 4.0450849718746906e-01 2.9389262614624295e-01 4.0450849718746906e-01 0 0
1.178000000000e+11 0 0 4.0450849718747467e-01 2.9389262614623524e-01 4.0450849718747467e-01 2.9389262614623524e-01 0 0
1.179000000000e+11 0 0 4.7552825814758415e-01 1.5450849718745102e-01 4.7552825814758415e-01 1.5450849718745102e-01 0 0
1.180000000000e+11 0 0 5.0000000000000000e-01 1.0778129793769884e-14 5.0000000000000000e-01 1.0778129793769884e-14 0 0
1.181000000000e+11 0 0 4.7552825814757327e-01 -1.5450849718748458e-01 4.7552825814757327e-01 -1.5450849718748458e-01 0 0
1.182000000000e+11 0 0 4.0450849718747067e-01 -2.9389262614624079e-01 4.0450849718747067e-01 -2.9389262614624079e-01 0 0
1.183000000000e+11 0 0 2.9389262614621442e-01 -4.0450849718748982e-01 2.9389262614621442e-01 -4.0450849718748982e-01 0 0
1.184000000000e+11 0 0 1.5450849718748061e-01 -4.7552825814757455e-01 1.5450849718748061e-01 -4.7552825814757455e-01 0 0
1.185000000000e+11 0 0 -1.4948428207555064e-14 -5.0000000000000000e-01 -1.4948428207555064e-14 -5.0000000000000000e-01 0 0
1.186000000000e+11 0 0 -1.5450849718748200e-01 -4.7552825814757410e-01 -1.5450849718748200e-01 -4.7552825814757410e-01 0 0
1.187000000000e+11 0 0 -2.9389262614623857e-01 -4.0450849718747223e-01 -2.9389262614623857e-01 -4.0450849718747223e-01 0 0
1.188000000000e+11 0 0 -4.0450849718747151e-01 -2.9389262614623957e-01 -4.0450849718747151e-01 -2.9389262614623957e-01 0 0
1.189000000000e+11 0 0 -4.7552825814758248e-01 -1.5450849718745613e-01 -4.7552825814758248e-01 -1.5450849718745613e-01 0 0
1.190000000000e+11 0 0 -5.0000000000000000e-01 -1.6168432651928003e-14 -5.0000000000000000e-01 -1.6168432651928003e-14 0 0
1.191000000000e+11 0 0 -4.7552825814757493e-01 1.5450849718747944e-01 -4.7552825814757493e-01 1.5450849718747944e-01 0 0
1.192000000000e+11 0 0 -4.0450849718747384e-01 2.9389262614623640e-01 -4.0450849718747384e-01 2.9389262614623640e-01 0 0
1.193000000000e+11 0 0 -2.9389262614621875e-01 4.0450849718748666e-01 -2.9389262614621875e-01 4.0450849718748666e-01 0 0
1.194000000000e+11 0 0 -1.5450849718748574e-01 4.7552825814757288e-01 -1.5450849718748574e-01 4.7552825814757288e-01 0 0
1.195000000000e+11 0 0 9.5581253493969448e-15 5.0000000000000000e-01 9.5581253493969448e-15 5.0000000000000000e-01 0 0
1.196000000000e+11 0 0 1.5450849718747689e-01 4.7552825814757577e-01 1.5450849718747689e-01 4.7552825814757577e-01 0 0
1.197000000000e+11 0 0 2.9389262614623424e-01 4.0450849718747539e-01 2.9389262614623424e-01 4.0450849718747539e-01 0 0
1.198000000000e+11 0 0 4.0450849718746834e-01 2.9389262614624395e-01 4.0450849718746834e-01 2.9389262614624395e-01 0 0
1.199000000000e+11 0 0 4.7552825814758082e-01 1.5450849718746126e-01 4.7552825814758082e-01 1.5450849718746126e-01 0 0
1.200000000000e+11 0 0 5.0000000000000000e-01 2.1558735510086122e-14 5.0000000000000000e-01 2.1558735510086122e-14 0 0
1.201000000000e+11 0 0 4.7552825814757660e-01 -1.5450849718747431e-01 4.7552825814757660e-01 -1.5450849718747431e-01 0 0
1.202000000000e+11 0 0 4.0450849718747700e-01 -2.9389262614623202e-01 4.0450849718747700e-01 -2.9389262614623202e-01 0 0
1.203000000000e+11 0 0 2.9389262614622313e-01 -4.0450849718748350e-01 2.9389262614622313e-01 -4.0450849718748350e-01 0 0
1.204000000000e+11 0 0 1.5450849718746382e-01 -4.7552825814757999e-01 1.5450849718746382e-01 -4.7552825814757999e-01 0 0
1.205000000000e+11 0 0 -4.1678224912388251e-15 -5.0000000000000000e-01 -4.1678224912388251e-15 -5.0000000000000000e-01 0 0
1.206000000000e+11 0 0 -1.5450849718749879e-01 -4.7552825814756866e-01 -1.5450849718749879e-01 -4.7552825814756866e-01 0 0
1.207000000000e+11 0 0 -2.9389262614622985e-01 -4.0450849718747856e-01 -2.9389262614622985e-01 -4.0450849718747856e-01 0 0
1.208000000000e+11 0 0 -4.0450849718748189e-01 -2.9389262614622530e-01 -4.0450849718748189e-01 -2.9389262614622530e-01 0 0
1.209000000000e+11 0 0 -4.7552825814757915e-01 -1.5450849718746640e-01 -4.7552825814757915e-01 -1.5450849718746640e-01 0 0
1.210000000000e+11 0 0 -5.0000000000000000e-01 2.9894380492563771e-14 -5.0000000000000000e-01 2.9894380492563771e-14 0 0
1.211000000000e+11 0 0 -4.7552825814757826e-01 1.5450849718746920e-01 -4.7552825814757826e-01 1.5450849718746920e-01 0 0
1.212000000000e+11 0 0 -4.0450849718746346e-01 2.9389262614625067e-01 -4.0450849718746346e-01 2.9389262614625067e-01 0 0
1.213000000000e+11 0 0 -2.9389262614622746e-01 4.0450849718748033e-01 -2.9389262614622746e-01 4.0450849718748033e-01 0 0
1.214000000000e+11 0 0 -1.5450849718746895e-01 4.7552825814757832e-01 -1.5450849718746895e-01 4.7552825814757832e-01 0 0
1.215000000000e+11 0 0 -1.2224803669192939e-15 5.0000000000000000e-01 -1.2224803669192939e-15 5.0000000000000000e-01 0 0
1.216000000000e+11 0 0 1.5450849718749365e-01 4.7552825814757033e-01 1.5450849718749365e-01 4.7552825814757033e-01 0 0
1.217000000000e+11 0 0 2.9389262614622552e-01 4.0450849718748177e-01 2.9389262614622552e-01 4.0450849718748177e-01 0 0
1.218000000000e+11 0 0 4.0450849718747872e-01 2.9389262614622969e-01 4.0450849718747872e-01 2.9389262614622969e-01 0 0
1.219000000000e+11 0 0 4.7552825814757749e-01 1.5450849718747151e-01 4.7552825814757749e-01 1.5450849718747151e-01 0 0
1.220000000000e+11 0 0 5.0000000000000000e-01 -2.4504077634405655e-14 5.0000000000000000e-01 -2.4504077634405655e-14 0 0
1.221000000000e+11 0 0 4.7552825814757993e-01 -1.5450849718746407e-01 4.7552825814757993e-01 -1.5450849718746407e-01 0 0
1.222000000000e+11 0 0 4.0450849718746662e-01 -2.9389262614624634e-01 4.0450849718746662e-01 -2.9389262614624634e-01 0 0
1.223000000000e+11 0 0 2.9389262614623185e-01 -4.0450849718747717e-01 2.9389262614623185e-01 -4.0450849718747717e-01 0 0
1.224000000000e+11 0 0 1.5450849718747409e-01 -4.7552825814757665e-01 1.5450849718747409e-01 -4.7552825814757665e-01 0 0
1.225000000000e+11 0 0 6.6127832250774128e-15 -5.0000000000000000e-01 6.6127832250774128e-15 -5.0000000000000000e-01 0 0
1.226000000000e+11 0 0 -1.5450849718748855e-01 -4.7552825814757199e-01 -1.5450849718748855e-01 -4.7552825814757199e-01 0 0
1.227000000000e+11 0 0 -2.9389262614622114e-01 -4.0450849718748494e-01 -2.9389262614622114e-01 -4.0450849718748494e-01 0 0
1.228000000000e+11 0 0 -4.0450849718747556e-01 -2.9389262614623402e-01 -4.0450849718747556e-01 -2.9389262614623402e-01 0 0
1.229000000000e+11 0 0 -4.7552825814757582e-01 -1.5450849718747664e-01 -4.7552825814757582e-01 -1.5450849718747664e-01 0 0
1.230000000000e+11 0 0 -5.0000000000000000e-01 1.9113774776247536e-14 -5.0000000000000000e-01 1.9113774776247536e-14 0 0
1.231000000000e+11 0 0 -4.7552825814758160e-01 1.5450849718745893e-01 -4.7552825814758160e-01 1.5450849718745893e-01 0 0
1.232000000000e+11 0 0 -4.0450849718746978e-01 2.9389262614624195e-01 -4.0450849718746978e-01 2.9389262614624195e-01 0 0
1.233000000000e+11 0 0 -2.9389262614621320e-01 4.0450849718749066e-01 -2.9389262614621320e-01 4.0450849718749066e-01 0 0
1.234000000000e+11 0 0 -1.5450849718747922e-01 4.7552825814757499e-01 -1.5450849718747922e-01 4.7552825814757499e-01 0 0
1.235000000000e+11 0 0 1.6418623347168476e-14 5.0000000000000000e-01 1.6418623347168476e-14 5.0000000000000000e-01 0 0
1.236000000000e+11 0 0 1.5450849718748341e-01 4.7552825814757366e-01 1.5450849718748341e-01 4.7552825814757366e-01 0 0
1.237000000000e+11 0 0 2.9389262614623979e-01 4.0450849718747139e-01 2.9389262614623979e-01 4.0450849718747139e-01 0 0
1.238000000000e+11 0 0 4.0450849718747239e-01 2.9389262614623840e-01 4.0450849718747239e-01 2.9389262614623840e-01 0 0
1.239000000000e+11 0 0 4.7552825814758293e-01 1.5450849718745474e-01 4.7552825814758293e-01 1.5450849718745474e-01 0 0
1.240000000000e+11 0 0 5.0000000000000000e-01 -1.3723471918089415e-14 5.0000000000000000e-01 -1.3723471918089415e-14 0 0
1.241000000000e+11 0 0 4.7552825814757449e-01 -1.5450849718748083e-01 4.7552825814757449e-01 -1.5450849718748083e-01 0 0
1.242000000000e+11 0 0 4.0450849718747295e-01 -2.9389262614623757e-01 4.0450849718747295e-01 -2.9389262614623757e-01 0 0
1.243000000000e+11 0 0 2.9389262614621758e-01 -4.0450849718748749e-01 2.9389262614621758e-01 -4.0450849718748749e-01 0 0
1.244000000000e+11 0 0 1.5450849718748433e-01 -4.7552825814757332e-01 1.5450849718748433e-01 -4.7552825814757332e-01 0 0
1.245000000000e+11 0 0 -1.1028320489010356e-14 -5.0000000000000000e-01 -1.1028320489010356e-14 -5.0000000000000000e-01 0 0
1.246000000000e+11 0 0 -1.5450849718747828e-01 -4.7552825814757532e-01 -1.5450849718747828e-01 -4.7552825814757532e-01 0 0
1.247000000000e+11 0 0 -2.9389262614623540e-01 -4.0450849718747456e-01 -2.9389262614623540e-01 -4.0450849718747456e-01 0 0
1.248000000000e+11 0 0 -4.0450849718746923e-01 -2.9389262614624273e-01 -4.0450849718746923e-01 -2.9389262614624273e-01 0 0
1.249000000000e+11 0 0 -4.7552825814758126e-01 -1.5450849718745988e-01 -4.7552825814758126e-01 -1.5450849718745988e-01 0 0
1.250000000000e+11 0 0 -5.0000000000000000e-01 8.3331690599312964e-15 -5.0000000000000000e-01 8.3331690599312964e-15 0 0
1.251000000000e+11 0 0 -4.7552825814757615e-01 1.5450849718747572e-01 -4.7552825814757615e-01 1.5450849718747572e-01 0 0
1.252000000000e+11 0 0 -4.0450849718747611e-01 2.9389262614623324e-01 -4.0450849718747611e-01 2.9389262614623324e-01 0 0
1.253000000000e+11 0 0 -2.9389262614622191e-01 4.0450849718748433e-01 -2.9389262614622191e-01 4.0450849718748433e-01 0 0
1.254000000000e+11 0 0 -1.5450849718748946e-01 4.7552825814757166e-01 -1.5450849718748946e-01 4.7552825814757166e-01 0 0
1.255000000000e+11 0 0 5.6380176308522377e-15 5.0000000000000000e-01 5.6380176308522377e-15 5.0000000000000000e-01 0 0
1.256000000000e+11 0 0 1.5450849718747314e-01 4.7552825814757699e-01 1.5450849718747314e-01 4.7552825814757699e-01 0 0
1.257000000000e+11 0 0 2.9389262614623107e-01 4.0450849718747772e-01 2.9389262614623107e-01 4.0450849718747772e-01 0 0
1.258000000000e+11 0 0 4.0450849718746607e-01 2.9389262614624712e-01 4.0450849718746607e-01 2.9389262614624712e-01 0 0
1.259000000000e+11 0 0 4.7552825814757960e-01 1.5450849718746498e-01 4.7552825814757960e-01 1.5450849718746498e-01 0 0
1.260000000000e+11 0 0 5.0000000000000000e-01 -2.9428662017731778e-15 5.0000000000000000e-01 -2.9428662017731778e-15 0 0
1.261000000000e+11 0 0 4.7552825814757782e-01 -1.5450849718747059e-01 4.7552825814757782e-01 -1.5450849718747059e-01 0 0
1.262000000000e+11 0 0 4.0450849718746262e-01 -2.9389262614625189e-01 4.0450849718746262e-01 -2.9389262614625189e-01 0 0
1.263000000000e+11 0 0 2.9389262614622630e-01 -4.0450849718748116e-01 2.9389262614622630e-01 -4.0450849718748116e-01 0 0
1.264000000000e+11 0 0 1.5450849718746756e-01 -4.7552825814757876e-01 1.5450849718746756e-01 -4.7552825814757876e-01 0 0
1.265000000000e+11 0 0 -2.4771477269411822e-16 -5.0000000000000000e-01 -2.4771477269411822e-16 -5.0000000000000000e-01 0 0
1.266000000000e+11 0 0 -1.5450849718749507e-01 -4.7552825814756983e-01 -1.5450849718749507e-01 -4.7552825814756983e-01 0 0
1.267000000000e+11 0 0 -2.9389262614622669e-01 -4.0450849718748089e-01 -2.9389262614622669e-01 -4.0450849718748089e-01 0 0
1.268000000000e+11 0 0 -4.0450849718747961e-01 -2.9389262614622846e-01 -4.0450849718747961e-01 -2.9389262614622846e-01 0 0
1.269000000000e+11 0 0 -4.7552825814757793e-01 -1.5450849718747012e-01 -4.7552825814757793e-01 -1.5450849718747012e-01 0 0
1.270000000000e+11 0 0 -5.0000000000000000e-01 2.5974272774019067e-14 -5.0000000000000000e-01 2.5974272774019067e-14 0 0
1.271000000000e+11 0 0 -4.7552825814757949e-01 1.5450849718746545e-01 -4.7552825814757949e-01 1.5450849718746545e-01 0 0
1.272000000000e+11 0 0 -4.0450849718746573e-01 2.9389262614624750e-01 -4.0450849718746573e-01 2.9389262614624750e-01 0 0
1.273000000000e+11 0 0 -2.9389262614623063e-01 4.0450849718747800e-01 -2.9389262614623063e-01 4.0450849718747800e-01 0 0
1.274000000000e+11 0 0 -1.5450849718747267e-01 4.7552825814757710e-01 -1.5450849718747267e-01 4.7552825814757710e-01 0 0
1.275000000000e+11 0 0 -5.1425880854640010e-15 5.0000000000000000e-01 -5.1425880854640010e-15 5.0000000000000000e-01 0 0
1.276000000000e+11 0 0 1.5450849718748993e-01 4.7552825814757149e-01 1.5450849718748993e-01 4.7552825814757149e-01 0 0
1.277000000000e+11 0 0 2.9389262614624534e-01 4.0450849718746734e-01 2.9389262614624534e-01 4.0450849718746734e-01 0 0
1.278000000000e+11 0 0 4.0450849718747639e-01 2.9389262614623285e-01 4.0450849718747639e-01 2.9389262614623285e-01 0 0
1.279000000000e+11 0 0 4.7552825814757627e-01 1.5450849718747525e-01 4.7552825814757627e-01 1.5450849718747525e-01 0 0
1.280000000000e+11 0 0 5.0000000000000000e-01 -2.0583969915860948e-14 5.0000000000000000e-01 -2.0583969915860948e-14 0 0
1.281000000000e+11 0 0 4.7552825814758115e-01 -1.5450849718746035e-01 4.7552825814758115e-01 -1.5450849718746035e-01 0 0
1.282000000000e+11 0 0 4.0450849718746895e-01 -2.9389262614624312e-01 4.0450849718746895e-01 -2.9389262614624312e-01 0 0
1.283000000000e+11 0 0 2.9389262614623501e-01 -4.0450849718747484e-01 2.9389262614623501e-01 -4.0450849718747484e-01 0 0
1.284000000000e+11 0 0 1.5450849718747781e-01 -4.7552825814757543e-01 1.5450849718747781e-01 -4.7552825814757543e-01 0 0
1.285000000000e+11 0 0 1.0532890943622120e-14 -5.0000000000000000e-01 1.0532890943622120e-14 -5.0000000000000000e-01 0 0
1.286000000000e+11 0 0 -1.5450849718748480e-01 -4.7552825814757316e-01 -1.5450849718748480e-01 -4.7552825814757316e-01 0 0
1.287000000000e+11 0 0 -2.9389262614624095e-01 -4.0450849718747051e-01 -2.9389262614624095e-01 -4.0450849718747051e-01 0 0
1.288000000000e+11 0 0 -4.0450849718747328e-01 -2.9389262614623718e-01 -4.0450849718747328e-01 -2.9389262614623718e-01 0 0
1.289000000000e+11 0 0 -4.7552825814757460e-01 -1.5450849718748039e-01 -4.7552825814757460e-01 -1.5450849718748039e-01 0 0
1.290000000000e+11 0 0 -5.0000000000000000e-01 1.5193667057702830e-14 -5.0000000000000000e-01 1.5193667057702830e-14 0 0
1.291000000000e+11 0 0 -4.7552825814757399e-01 1.5450849718748225e-01 -4.7552825814757399e-01 1.5450849718748225e-01 0 0
1.292000000000e+11 0 0 -4.0450849718747212e-01 2.9389262614623879e-01 -4.0450849718747212e-01 2.9389262614623879e-01 0 0
1.293000000000e+11 0 0 -2.9389262614621636e-01 4.0450849718748838e-01 -2.9389262614621636e-01 4.0450849718748838e-01 0 0
1.294000000000e+11 0 0 -1.5450849718748294e-01 4.7552825814757377e-01 -1.5450849718748294e-01 4.7552825814757377e-01 0 0
1.295000000000e+11 0 0 1.2498515628623768e-14 5.0000000000000000e-01 1.2498515628623768e-14 5.0000000000000000e-01 0 0
1.296000000000e+11 0 0 1.5450849718747969e-01 4.7552825814757482e-01 1.5450849718747969e-01 4.7552825814757482e-01 0 0
1.297000000000e+11 0 0 2.9389262614625961e-01 4.0450849718745696e-01 2.9389262614625961e-01 4.0450849718745696e-01 0 0
1.298000000000e+11 0 0 4.0450849718747006e-01 2.9389262614624156e-01 4.0450849718747006e-01 2.9389262614624156e-01 0 0
1.299000000000e+11 0 0 4.7552825814758176e-01 1.5450849718745846e-01 4.7552825814758176e-01 1.5450849718745846e-01 0 0
1.300000000000e+11 0 0 5.0000000000000000e-01 -9.8033641995447090e-15 5.0000000000000000e-01 -9.8033641995447090e-15 0 0
1.301000000000e+11 0 0 4.7552825814757566e-01 -1.5450849718747711e-01 4.7552825814757566e-01 -1.5450849718747711e-01 0 0
1.302000000000e+11 0 0 4.0450849718747528e-01 -2.9389262614623440e-01 4.0450849718747528e-01 -2.9389262614623440e-01 0 0
1.303000000000e+11 0 0 2.9389262614622075e-01 -4.0450849718748522e-01 2.9389262614622075e-01 -4.0450849718748522e-01 0 0
1.304000000000e+11 0 0 1.5450849718748808e-01 -4.7552825814757210e-01 1.5450849718748808e-01 -4.7552825814757210e-01 0 0
1.305000000000e+11 0 0 -7.1082127704656495e-15 -5.0000000000000000e-01 -7.1082127704656495e-15 -5.0000000000000000e-01 0 0
1.306000000000e+11 0 0 -1.5450849718747456e-01 -4.7552825814757649e-01 -1.5450849718747456e-01 -4.7552825814757649e-01 0 0
1.307000000000e+11 0 0 -2.9389262614625522e-01 -4.0450849718746013e-01 -2.9389262614625522e-01 -4.0450849718746013e-01 0 0
1.308000000000e+11 0 0 -4.0450849718746690e-01 -2.9389262614624589e-01 -4.0450849718746690e-01 -2.9389262614624589e-01 0 0
1.309000000000e+11 0 0 -4.7552825814758010e-01 -1.5450849718746359e-01 -4.7552825814758010e-01 -1.5450849718746359e-01 0 0
1.310000000000e+11 0 0 -5.0000000000000000e-01 4.4130613413865900e-15 -5.0000000000000000e-01 4.4130613413865900e-15 0 0
1.311000000000e+11 0 0 -4.7552825814757732e-01 1.5450849718747198e-01 -4.7552825814757732e-01 1.5450849718747198e-01 0 0
1.312000000000e+11 0 0 -4.0450849718747844e-01 2.9389262614623007e-01 -4.0450849718747844e-01 2.9389262614623007e-01 0 0
1.313000000000e+11 0 0 -2.9389262614622513e-01 4.0450849718748205e-01 -2.9389262614622513e-01 4.0450849718748205e-01 0 0
1.314000000000e+11 0 0 -1.5450849718749318e-01 4.7552825814757044e-01 -1.5450849718749318e-01 4.7552825814757044e-01 0 0
1.315000000000e+11 0 0 1.7179099123075303e-15 5.0000000000000000e-01 1.7179099123075303e-15 5.0000000000000000e-01 0 0
1.316000000000e+11 0 0 1.5450849718746942e-01 4.7552825814757815e-01 1.5450849718746942e-01 4.7552825814757815e-01 0 0
1.317000000000e+11 0 0 2.9389262614625089e-01 4.0450849718746329e-01 2.9389262614625089e-01 4.0450849718746329e-01 0 0
1.318000000000e+11 0 0 4.0450849718746373e-01 2.9389262614625028e-01 4.0450849718746373e-01 2.9389262614625028e-01 0 0
1.319000000000e+11 0 0 4.7552825814757843e-01 1.5450849718746873e-01 4.7552825814757843e-01 1.5450849718746873e-01 0 0
1.320000000000e+11 0 0 5.0000000000000000e-01 9.7724151677152916e-16 5.0000000000000000e-01 9.7724151677152916e-16 0 0
1.321000000000e+11 0 0 4.7552825814757899e-01 -1.5450849718746687e-01 4.7552825814757899e-01 -1.5450849718746687e-01 0 0
1.322000000000e+11 0 0 4.0450849718746490e-01 -2.9389262614624867e-01 4.0450849718746490e-01 -2.9389262614624867e-01 0 0
1.323000000000e+11 0 0 2.9389262614622946e-01 -4.0450849718747889e-01 2.9389262614622946e-01 -4.0450849718747889e-01 0 0
1.324000000000e+11 0 0 1.5450849718744425e-01 -4.7552825814758637e-01 1.5450849718744425e-01 -4.7552825814758637e-01 0 0
1.325000000000e+11 0 0 3.6723929458505884e-15 -5.0000000000000000e-01 3.6723929458505884e-15 -5.0000000000000000e-01 0 0
1.326000000000e+11 0 0 -1.5450849718749132e-01 -4.7552825814757105e-01 -1.5450849718749132e-01 -4.7552825814757105e-01 0 0
1.327000000000e+11 0 0 -2.9389262614624651e-01 -4.0450849718746651e-01 -2.9389262614624651e-01 -4.0450849718746651e-01 0 0
1.328000000000e+11 0 0 -4.0450849718747728e-01 -2.9389262614623163e-01 -4.0450849718747728e-01 -2.9389262614623163e-01 0 0
1.329000000000e+11 0 0 -4.7552825814757677e-01 -1.5450849718747384e-01 -4.7552825814757677e-01 -1.5450849718747384e-01 0 0
1.330000000000e+11 0 0 -5.0000000000000000e-01 2.2054165055474358e-14 -5.0000000000000000e-01 2.2054165055474358e-14 0 0
1.331000000000e+11 0 0 -4.7552825814758065e-01 1.5450849718746174e-01 -4.7552825814758065e-01 1.5450849718746174e-01 0 0
1.332000000000e+11 0 0 -4.0450849718746806e-01 2.9389262614624434e-01 -4.0450849718746806e-01 2.9389262614624434e-01 0 0
1.333000000000e+11 0 0 -2.9389262614623385e-01 4.0450849718747572e-01 -2.9389262614623385e-01 4.0450849718747572e-01 0 0
1.334000000000e+11 0 0 -1.5450849718744938e-01 4.7552825814758470e-01 -1.5450849718744938e-01 4.7552825814758470e-01 0 0
1.335000000000e+11 0 0 -9.0626958040087074e-15 5.0000000000000000e-01 -9.0626958040087074e-15 5.0000000000000000e-01 0 0
1.336000000000e+11 0 0 1.5450849718748622e-01 4.7552825814757271e-01 1.5450849718748622e-01 4.7552825814757271e-01 0 0
1.337000000000e+11 0 0 2.9389262614624218e-01 4.0450849718746967e-01 2.9389262614624218e-01 4.0450849718746967e-01 0 0
1.338000000000e+11 0 0 4.0450849718747411e-01 2.9389262614623601e-01 4.0450849718747411e-01 2.9389262614623601e-01 0 0
1.339000000000e+11 0 0 4.7552825814757510e-01 1.5450849718747897e-01 4.7552825814757510e-01 1.5450849718747897e-01 0 0
1.340000000000e+11 0 0 5.0000000000000000e-01 -1.6663862197316239e-14 5.0000000000000000e-01 -1.6663862197316239e-14 0 0
1.341000000000e+11 0 0 4.7552825814758232e-01 -1.5450849718745660e-01 4.7552825814758232e-01 -1.5450849718745660e-01 0 0
1.342000000000e+11 0 0 4.0450849718747123e-01 -2.9389262614623995e-01 4.0450849718747123e-01 -2.9389262614623995e-01 0 0
1.343000000000e+11 0 0 2.9389262614623818e-01 -4.0450849718747250e-01 2.9389262614623818e-01 -4.0450849718747250e-01 0 0
1.344000000000e+11 0 0 1.5450849718745452e-01 -4.7552825814758304e-01 1.5450849718745452e-01 -4.7552825814758304e-01 0 0
1.345000000000e+11 0 0 1.4452998662166828e-14 -5.0000000000000000e-01 1.4452998662166828e-14 -5.0000000000000000e-01 0 0
1.346000000000e+11 0 0 -1.5450849718748108e-01 -4.7552825814757438e-01 -1.5450849718748108e-01 -4.7552825814757438e-01 0 0
1.347000000000e+11 0 0 -2.9389262614623779e-01 -4.0450849718747284e-01 -2.9389262614623779e-01 -4.0450849718747284e-01 0 0
1.348000000000e+11 0 0 -4.0450849718747095e-01 -2.9389262614624034e-01 -4.0450849718747095e-01 -2.9389262614624034e-01 0 0
1.349000000000e+11 0 0 -4.7552825814757343e-01 -1.5450849718748411e-01 -4.7552825814757343e-01 -1.5450849718748411e-01 0 0
1.350000000000e+11 0 0 -5.0000000000000000e-01 1.1273559339158122e-14 -5.0000000000000000e-01 1.1273559339158122e-14 0 0
1.351000000000e+11 0 0 -4.7552825814756644e-01 1.5450849718750553e-01 -4.7552825814756644e-01 1.5450849718750553e-01 0 0
1.352000000000e+11 0 0 -4.0450849718747439e-01 2.9389262614623562e-01 -4.0450849718747439e-01 2.9389262614623562e-01 0 0
1.353000000000e+11 0 0 -2.9389262614621958e-01 4.0450849718748605e-01 -2.9389262614621958e-01 4.0450849718748605e-01 0 0
1.354000000000e+11 0 0 -1.5450849718745963e-01 4.7552825814758137e-01 -1.5450849718745963e-01 4.7552825814758137e-01 0 0
1.355000000000e+11 0 0 8.5784079100790621e-15 5.0000000000000000e-01 8.5784079100790621e-15 5.0000000000000000e-01 0 0
1.356000000000e+11 0 0 1.5450849718747595e-01 4.7552825814757604e-01 1.5450849718747595e-01 4.7552825814757604e-01 0 0
1.357000000000e+11 0 0 2.9389262614625644e-01 4.0450849718745929e-01 2.9389262614625644e-01 4.0450849718745929e-01 0 0
1.358000000000e+11 0 0 4.0450849718746779e-01 2.9389262614624473e-01 4.0450849718746779e-01 2.9389262614624473e-01 0 0
1.359000000000e+11 0 0 4.7552825814758054e-01 1.5450849718746221e-01 4.7552825814758054e-01 1.5450849718746221e-01 0 0
1.360000000000e+11 0 0 5.0000000000000000e-01 -5.8832564810000018e-15 5.0000000000000000e-01 -5.8832564810000018e-15 0 0
1.361000000000e+11 0 0 4.7552825814756811e-01 -1.5450849718750043e-01 4.7552825814756811e-01 -1.5450849718750043e-01 0 0
1.362000000000e+11 0 0 4.0450849718747756e-01 -2.9389262614623124e-01 4.0450849718747756e-01 -2.9389262614623124e-01 0 0
1.363000000000e+11 0 0 2.9389262614622391e-01 -4.0450849718748288e-01 2.9389262614622391e-01 -4.0450849718748288e-01 0 0
1.364000000000e+11 0 0 1.5450849718746476e-01 -4.7552825814757971e-01 1.5450849718746476e-01 -4.7552825814757971e-01 0 0
1.365000000000e+11 0 0 -3.1881050519209427e-15 -5.0000000000000000e-01 -3.1881050519209427e-15 -5.0000000000000000e-01 0 0
1.366000000000e+11 0 0 -1.5450849718747084e-01 -4.7552825814757771e-01 -1.5450849718747084e-01 -4.7552825814757771e-01 0 0
1.367000000000e+11 0 0 -2.9389262614625206e-01 -4.0450849718746246e-01 -2.9389262614625206e-01 -4.0450849718746246e-01 0 0
1.368000000000e+11 0 0 -4.0450849718746462e-01 -2.9389262614624911e-01 -4.0450849718746462e-01 -2.9389262614624911e-01 0 0
1.369000000000e+11 0 0 -4.7552825814757888e-01 -1.5450849718746731e-01 -4.7552825814757888e-01 -1.5450849718746731e-01 0 0
1.370000000000e+11 0 0 -5.0000000000000000e-01 4.9295362284188304e-16 -5.0000000000000000e-01 4.9295362284188304e-16 0 0
1.371000000000e+11 0 0 -4.7552825814756977e-01 1.5450849718749529e-01 -4.7552825814756977e-01 1.5450849718749529e-01 0 0
1.372000000000e+11 0 0 -4.0450849718748072e-01 2.9389262614622691e-01 -4.0450849718748072e-01 2.9389262614622691e-01 0 0
1.373000000000e+11 0 0 -2.9389262614622830e-01 4.0450849718747972e-01 -2.9389262614622830e-01 4.0450849718747972e-01 0 0
1.374000000000e+11 0 0 -1.5450849718746990e-01 4.7552825814757804e-01 -1.5450849718746990e-01 4.7552825814757804e-01 0 0
1.375000000000e+11 0 0 -2.2021978062371766e-15 5.0000000000000000e-01 -2.2021978062371766e-15 5.0000000000000000e-01 0 0
1.376000000000e+11 0 0 1.5450849718746570e-01 4.7552825814757937e-01 1.5450849718746570e-01 4.7552825814757937e-01 0 0
1.377000000000e+11 0 0 2.9389262614624773e-01 4.0450849718746562e-01 2.9389262614624773e-01 4.0450849718746562e-01 0 0
1.378000000000e+11 0 0 4.0450849718746146e-01 2.9389262614625344e-01 4.0450849718746146e-01 2.9389262614625344e-01 0 0
1.379000000000e+11 0 0 4.7552825814757721e-01 1.5450849718747245e-01 4.7552825814757721e-01 1.5450849718747245e-01 0 0
1.380000000000e+11 0 0 5.0000000000000000e-01 -2.3524360195087771e-14 5.0000000000000000e-01 -2.3524360195087771e-14 0 0
1.381000000000e+11 0 0 4.7552825814757144e-01 -1.5450849718749016e-01 4.7552825814757144e-01 -1.5450849718749016e-01 0 0
1.382000000000e+11 0 0 4.0450849718746718e-01 -2.9389262614624551e-01 4.0450849718746718e-01 -2.9389262614624551e-01 0 0
1.383000000000e+11 0 0 2.9389262614623263e-01 -4.0450849718747656e-01 2.9389262614623263e-01 -4.0450849718747656e-01 0 0
1.384000000000e+11 0 0 1.5450849718744800e-01 -4.7552825814758515e-01 1.5450849718744800e-01 -4.7552825814758515e-01 0 0
1.385000000000e+11 0 0 7.5925006643952948e-15 -5.0000000000000000e-01 7.5925006643952948e-15 -5.0000000000000000e-01 0 0
1.386000000000e+11 0 0 -1.5450849718748760e-01 -4.7552825814757227e-01 -1.5450849718748760e-01 -4.7552825814757227e-01 0 0
1.387000000000e+11 0 0 -2.9389262614624334e-01 -4.0450849718746879e-01 -2.9389262614624334e-01 -4.0450849718746879e-01 0 0
1.388000000000e+11 0 0 -4.0450849718747500e-01 -2.9389262614623479e-01 -4.0450849718747500e-01 -2.9389262614623479e-01 0 0
1.389000000000e+11 0 0 -4.7552825814757554e-01 -1.5450849718747758e-01 -4.7552825814757554e-01 -1.5450849718747758e-01 0 0
1.390000000000e+11 0 0 -5.0000000000000000e-01 1.8134057336929652e-14 -5.0000000000000000e-01 1.8134057336929652e-14 0 0
1.391000000000e+11 0 0 -4.7552825814757310e-01 1.5450849718748505e-01 -4.7552825814757310e-01 1.5450849718748505e-01 0 0
1.392000000000e+11 0 0 -4.0450849718747039e-01 2.9389262614624118e-01 -4.0450849718747039e-01 2.9389262614624118e-01 0 0
1.393000000000e+11 0 0 -2.9389262614623701e-01 4.0450849718747339e-01 -2.9389262614623701e-01 4.0450849718747339e-01 0 0
1.394000000000e+11 0 0 -1.5450849718745310e-01 4.7552825814758348e-01 -1.5450849718745310e-01 4.7552825814758348e-01 0 0
1.395000000000e+11 0 0 -1.2982803522553414e-14 5.0000000000000000e-01 -1.2982803522553414e-14 5.0000000000000000e-01 0 0
1.396000000000e+11 0 0 1.5450849718748247e-01 4.7552825814757393e-01 1.5450849718748247e-01 4.7552825814757393e-01 0 0
1.397000000000e+11 0 0 2.9389262614623901e-01 4.0450849718747195e-01 2.9389262614623901e-01 4.0450849718747195e-01 0 0
1.398000000000e+11 0 0 4.0450849718747184e-01 2.9389262614623918e-01 4.0450849718747184e-01 2.9389262614623918e-01 0 0
1.399000000000e+11 0 0 4.7552825814757388e-01 1.5450849718748269e-01 4.7552825814757388e-01 1.5450849718748269e-01 0 0
1.400000000000e+11 0 0 5.0000000000000000e-01 -1.2743754478771533e-14 5.0000000000000000e-01 -1.2743754478771533e-14 0 0
1.401000000000e+11 0 0 4.7552825814757477e-01 -1.5450849718747992e-01 4.7552825814757477e-01 -1.5450849718747992e-01 0 0
1.402000000000e+11 0 0 4.0450849718747356e-01 -2.9389262614623679e-01 4.0450849718747356e-01 -2.9389262614623679e-01 0 0
1.403000000000e+11 0 0 2.9389262614624134e-01 -4.0450849718747023e-01 2.9389262614624134e-01 -4.0450849718747023e-01 0 0
1.404000000000e+11 0 0 1.5450849718745824e-01 -4.7552825814758182e-01 1.5450849718745824e-01 -4.7552825814758182e-01 0 0
1.405000000000e+11 0 0 1.8373106380711534e-14 -5.0000000000000000e-01 1.8373106380711534e-14 -5.0000000000000000e-01 0 0
1.406000000000e+11 0 0 -1.5450849718747736e-01 -4.7552825814757560e-01 -1.5450849718747736e-01 -4.7552825814757560e-01 0 0
1.407000000000e+11 0 0 -2.9389262614623463e-01 -4.0450849718747511e-01 -2.9389262614623463e-01 -4.0450849718747511e-01 0 0
1.408000000000e+11 0 0 -4.0450849718746867e-01 -2.9389262614624356e-01 -4.0450849718746867e-01 -2.9389262614624356e-01 0 0
1.409000000000e+11 0 0 -4.7552825814758098e-01 -1.5450849718746079e-01 -4.7552825814758098e-01 -1.5450849718746079e-01 0 0
1.410000000000e+11 0 0 -5.0000000000000000e-01 7.3534516206134136e-15 -5.0000000000000000e-01 7.3534516206134136e-15 0 0
1.411000000000e+11 0 0 -4.7552825814756766e-01 1.5450849718750181e-01 -4.7552825814756766e-01 1.5450849718750181e-01 0 0
1.412000000000e+11 0 0 -4.0450849718747672e-01 2.9389262614623246e-01 -4.0450849718747672e-01 2.9389262614623246e-01 0 0
1.413000000000e+11 0 0 -2.9389262614622275e-01 4.0450849718748377e-01 -2.9389262614622275e-01 4.0450849718748377e-01 0 0
1.414000000000e+11 0 0 -1.5450849718746337e-01 4.7552825814758015e-01 -1.5450849718746337e-01 4.7552825814758015e-01 0 0
1.415000000000e+11 0 0 4.6583001915343549e-15 5.0000000000000000e-01 4.6583001915343549e-15 5.0000000000000000e-01 0 0
1.416000000000e+11 0 0 1.5450849718747223e-01 4.7552825814757727e-01 1.5450849718747223e-01 4.7552825814757727e-01 0 0
1.417000000000e+11 0 0 2.9389262614625328e-01 4.0450849718746157e-01 2.9389262614625328e-01 4.0450849718746157e-01 0 0
1.418000000000e+11 0 0 4.0450849718746545e-01 2.9389262614624789e-01 4.0450849718746545e-01 2.9389262614624789e-01 0 0
1.419000000000e+11 0 0 4.7552825814757932e-01 1.5450849718746593e-01 4.7552825814757932e-01 1.5450849718746593e-01 0 0
1.420000000000e+11 0 0 5.0000000000000000e-01 -1.9631487624552950e-15 5.0000000000000000e-01 -1.9631487624552950e-15 0 0
1.421000000000e+11 0 0 4.7552825814756933e-01 -1.5450849718749668e-01 4.7552825814756933e-01 -1.5450849718749668e-01 0 0
1.422000000000e+11 0 0 4.0450849718747989e-01 -2.9389262614622808e-01 4.0450849718747989e-01 -2.9389262614622808e-01 0 0
1.423000000000e+11 0 0 2.9389262614622708e-01 -4.0450849718748061e-01 2.9389262614622708e-01 -4.0450849718748061e-01 0 0
1.424000000000e+11 0 0 1.5450849718746848e-01 -4.7552825814757849e-01 1.5450849718746848e-01 -4.7552825814757849e-01 0 0
1.425000000000e+11 0 0 7.3200266662376434e-16 -5.0000000000000000e-01 7.3200266662376434e-16 -5.0000000000000000e-01 0 0
1.426000000000e+11 0 0 -1.5450849718746709e-01 -4.7552825814757893e-01 -1.5450849718746709e-01 -4.7552825814757893e-01 0 0
1.427000000000e+11 0 0 -2.9389262614624889e-01 -4.0450849718746473e-01 -2.9389262614624889e-01 -4.0450849718746473e-01 0 0
1.428000000000e+11 0 0 -4.0450849718747900e-01 -2.9389262614622924e-01 -4.0450849718747900e-01 -2.9389262614622924e-01 0 0
1.429000000000e+11 0 0 -4.7552825814757765e-01 -1.5450849718747106e-01 -4.7552825814757765e-01 -1.5450849718747106e-01 0 0
1.430000000000e+11 0 0 -5.0000000000000000e-01 -3.4271540957028239e-15 -5.0000000000000000e-01 -3.4271540957028239e-15 0 0
1.431000000000e+11 0 0 -4.7552825814757099e-01 1.5450849718749157e-01 -4.7552825814757099e-01 1.5450849718749157e-01 0 0
1.432000000000e+11 0 0 -4.0450849718748305e-01 2.9389262614622375e-01 -4.0450849718748305e-01 2.9389262614622375e-01 0 0
1.433000000000e+11 0 0 -2.9389262614623146e-01 4.0450849718747744e-01 -2.9389262614623146e-01 4.0450849718747744e-01 0 0
1.434000000000e+11 0 0 -1.5450849718747361e-01 4.7552825814757682e-01 -1.5450849718747361e-01 4.7552825814757682e-01 0 0
1.435000000000e+11 0 0 -6.1223055247818830e-15 5.0000000000000000e-01 -6.1223055247818830e-15 5.0000000000000000e-01 0 0
1.436000000000e+11 0 0 1.5450849718746196e-01 4.7552825814758060e-01 1.5450849718746196e-01 4.7552825814758060e-01 0 0
1.437000000000e+11 0 0 2.9389262614624456e-01 4.0450849718746790e-01 2.9389262614624456e-01 4.0450849718746790e-01 0 0
1.438000000000e+11 0 0 4.0450849718749254e-01 2.9389262614621064e-01 4.0450849718749254e-01 2.9389262614621064e-01 0 0
1.439000000000e+11 0 0 4.7552825814757599e-01 1.5450849718747617e-01 4.7552825814757599e-01 1.5450849718747617e-01 0 0
1.440000000000e+11 0 0 5.0000000000000000e-01 -1.9604252476543064e-14 5.0000000000000000e-01 -1.9604252476543064e-14 0 0
1.441000000000e+11 0 0 4.7552825814757266e-01 -1.5450849718748644e-01 4.7552825814757266e-01 -1.5450849718748644e-01 0 0
1.442000000000e+11 0 0 4.0450849718746951e-01 -2.9389262614624234e-01 4.0450849718746951e-01 -2.9389262614624234e-01 0 0
1.443000000000e+11 0 0 2.9389262614623579e-01 -4.0450849718747428e-01 2.9389262614623579e-01 -4.0450849718747428e-01 0 0
1.444000000000e+11 0 0 1.5450849718745172e-01 -4.7552825814758393e-01 1.5450849718745172e-01 -4.7552825814758393e-01 0 0
1.445000000000e+11 0 0 1.1512608382940003e-14 -5.0000000000000000e-01 1.1512608382940003e-14 -5.0000000000000000e-01 0 0
1.446000000000e+11 0 0 -1.5450849718748388e-01 -4.7552825814757349e-01 -1.5450849718748388e-01 -4.7552825814757349e-01 0 0
1.447000000000e+11 0 0 -2.9389262614624018e-01 -4.0450849718747106e-01 -2.9389262614624018e-01 -4.0450849718747106e-01 0 0
1.448000000000e+11 0 0 -4.0450849718748938e-01 -2.9389262614621497e-01 -4.0450849718748938e-01 -2.9389262614621497e-01 0 0
1.449000000000e+11 0 0 -4.7552825814757432e-01 -1.5450849718748130e-01 -4.7552825814757432e-01 -1.5450849718748130e-01 0 0
1.450000000000e+11 0 0 -5.0000000000000000e-01 1.4213949618384945e-14 -5.0000000000000000e-01 1.4213949618384945e-14 0 0
1.451000000000e+11 0 0 -4.7552825814757432e-01 1.5450849718748130e-01 -4.7552825814757432e-01 1.5450849718748130e-01 0 0
1.452000000000e+11 0 0 -4.0450849718747267e-01 2.9389262614623801e-01 -4.0450849718747267e-01 2.9389262614623801e-01 0 0
1.453000000000e+11 0 0 -2.9389262614624018e-01 4.0450849718747112e-01 -2.9389262614624018e-01 4.0450849718747112e-01 0 0
1.454000000000e+11 0 0 -1.5450849718745685e-01 4.7552825814758226e-01 -1.5450849718745685e-01 4.7552825814758226e-01 0 0
1.455000000000e+11 0 0 -1.6902911241098122e-14 5.0000000000000000e-01 -1.6902911241098122e-14 5.0000000000000000e-01 0 0
1.456000000000e+11 0 0 1.5450849718747875e-01 4.7552825814757516e-01 1.5450849718747875e-01 4.7552825814757516e-01 0 0
1.457000000000e+11 0 0 2.9389262614623579e-01 4.0450849718747428e-01 2.9389262614623579e-01 4.0450849718747428e-01 0 0
1.458000000000e+11 0 0 4.0450849718748622e-01 2.9389262614621936e-01 4.0450849718748622e-01 2.9389262614621936e-01 0 0
1.459000000000e+11 0 0 4.7552825814757266e-01 1.5450849718748644e-01 4.7552825814757266e-01 1.5450849718748644e-01 0 0
1.460000000000e+11 0 0 5.0000000000000000e-01 -8.8236467602268262e-15 5.0000000000000000e-01 -8.8236467602268262e-15 0 0
1.461000000000e+11 0 0 4.7552825814757599e-01 -1.5450849718747620e-01 4.7552825814757599e-01 -1.5450849718747620e-01 0 0
1.462000000000e+11 0 0 4.0450849718747584e-01 -2.9389262614623363e-01 4.0450849718747584e-01 -2.9389262614623363e-01 0 0
1.463000000000e+11 0 0 2.9389262614624451e-01 -4.0450849718746790e-01 2.9389262614624451e-01 -4.0450849718746790e-01 0 0
1.464000000000e+11 0 0 1.5450849718746196e-01 -4.7552825814758060e-01 1.5450849718746196e-01 -4.7552825814758060e-01 0 0
1.465000000000e+11 0 0 2.2293214099256241e-14 -5.0000000000000000e-01 2.2293214099256241e-14 -5.0000000000000000e-01 0 0
1.466000000000e+11 0 0 -1.5450849718747361e-01 -4.7552825814757682e-01 -1.5450849718747361e-01 -4.7552825814757682e-01 0 0
1.467000000000e+11 0 0 -2.9389262614623146e-01 -4.0450849718747744e-01 -2.9389262614623146e-01 -4.0450849718747744e-01 0 0
1.468000000000e+11 0 0 -4.0450849718748305e-01 -2.9389262614622369e-01 -4.0450849718748305e-01 -2.9389262614622369e-01 0 0
1.469000000000e+11 0 0 -4.7552825814757976e-01 -1.5450849718746454e-01 -4.7552825814757976e-01 -1.5450849718746454e-01 0 0
1.470000000000e+11 0 0 -5.0000000000000000e-01 3.4333439020687072e-15 -5.0000000000000000e-01 3.4333439020687072e-15 0 0
1.471000000000e+11 0 0 -4.7552825814756888e-01 1.5450849718749810e-01 -4.7552825814756888e-01 1.5450849718749810e-01 0 0
1.472000000000e+11 0 0 -4.0450849718747900e-01 2.9389262614622930e-01 -4.0450849718747900e-01 2.9389262614622930e-01 0 0
1.473000000000e+11 0 0 -2.9389262614622591e-01 4.0450849718748144e-01 -2.9389262614622591e-01 4.0450849718748144e-01 0 0
1.474000000000e+11 0 0 -1.5450849718746709e-01 4.7552825814757893e-01 -1.5450849718746709e-01 4.7552825814757893e-01 0 0
1.475000000000e+11 0 0 2.9159901903393655e-14 5.0000000000000000e-01 2.9159901903393655e-14 5.0000000000000000e-01 0 0
1.476000000000e+11 0 0 1.5450849718746851e-01 4.7552825814757849e-01 1.5450849718746851e-01 4.7552825814757849e-01 0 0
1.477000000000e+11 0 0 2.9389262614625011e-01 4.0450849718746390e-01 2.9389262614625011e-01 4.0450849718746390e-01 0 0
1.478000000000e+11 0 0 4.0450849718747989e-01 2.9389262614622808e-01 4.0450849718747989e-01 2.9389262614622808e-01 0 0
1.479000000000e+11 0 0 4.7552825814757810e-01 1.5450849718746965e-01 4.7552825814757810e-01 1.5450849718746965e-01 0 0
1.480000000000e+11 0 0 5.0000000000000000e-01 1.9569589560894117e-15 5.0000000000000000e-01 1.9569589560894117e-15 0 0
1.481000000000e+11 0 0 4.7552825814757055e-01 -1.5450849718749296e-01 4.7552825814757055e-01 -1.5450849718749296e-01 0 0
1.482000000000e+11 0 0 4.0450849718748216e-01 -2.9389262614622491e-01 4.0450849718748216e-01 -2.9389262614622491e-01 0 0
1.483000000000e+11 0 0 2.9389262614623024e-01 -4.0450849718747828e-01 2.9389262614623024e-01 -4.0450849718747828e-01 0 0
1.484000000000e+11 0 0 1.5450849718747223e-01 -4.7552825814757727e-01 1.5450849718747223e-01 -4.7552825814757727e-01 0 0
1.485000000000e+11 0 0 -2.3769599045235536e-14 -5.0000000000000000e-01 -2.3769599045235536e-14 -5.0000000000000000e-01 0 0
1.486000000000e+11 0 0 -1.5450849718746337e-01 -4.7552825814758015e-01 -1.5450849718746337e-01 -4.7552825814758015e-01 0 0
1.487000000000e+11 0 0 -2.9389262614624573e-01 -4.0450849718746706e-01 -2.9389262614624573e-01 -4.0450849718746706e-01 0 0
1.488000000000e+11 0 0 -4.0450849718747672e-01 -2.9389262614623246e-01 -4.0450849718747672e-01 -2.9389262614623246e-01 0 0
1.489000000000e+11 0 0 -4.7552825814757643e-01 -1.5450849718747478e-01 -4.7552825814757643e-01 -1.5450849718747478e-01 0 0
1.490000000000e+11 0 0 -5.0000000000000000e-01 -7.3472618142475307e-15 -5.0000000000000000e-01 -7.3472618142475307e-15 0 0
1.491000000000e+11 0 0 -4.7552825814757221e-01 1.5450849718748783e-01 -4.7552825814757221e-01 1.5450849718748783e-01 0 0
1.492000000000e+11 0 0 -4.0450849718748533e-01 2.9389262614622053e-01 -4.0450849718748533e-01 2.9389262614622053e-01 0 0
1.493000000000e+11 0 0 -2.9389262614623463e-01 4.0450849718747511e-01 -2.9389262614623463e-01 4.0450849718747511e-01 0 0
1.494000000000e+11 0 0 -1.5450849718747733e-01 4.7552825814757560e-01 -1.5450849718747733e-01 4.7552825814757560e-01 0 0
1.495000000000e+11 0 0 1.8379296187077417e-14 5.0000000000000000e-01 1.8379296187077417e-14 5.0000000000000000e-01 0 0
1.496000000000e+11 0 0 1.5450849718745824e-01 4.7552825814758182e-01 1.5450849718745824e-01 4.7552825814758182e-01 0 0
1.497000000000e+11 0 0 2.9389262614624134e-01 4.0450849718747023e-01 2.9389262614624134e-01 4.0450849718747023e-01 0 0
1.498000000000e+11 0 0 4.0450849718749027e-01 2.9389262614621381e-01 4.0450849718749027e-01 2.9389262614621381e-01 0 0
1.499000000000e+11 0 0 4.7552825814757477e-01 1.5450849718747992e-01 4.7552825814757477e-01 1.5450849718747992e-01 0 0
1.500000000000e+11 0 0 5.0000000000000000e-01 -1.5684144757998358e-14 5.0000000000000000e-01 -1.5684144757998358e-14 0 0
1.501000000000e+11 0 0 4.7552825814757388e-01 -1.5450849718748272e-01 4.7552825814757388e-01 -1.5450849718748272e-01 0 0
1.502000000000e+11 0 0 4.0450849718745513e-01 -2.9389262614626216e-01 4.0450849718745513e-01 -2.9389262614626216e-01 0 0
1.503000000000e+11 0 0 2.9389262614623896e-01 -4.0450849718747195e-01 2.9389262614623896e-01 -4.0450849718747195e-01 0 0
1.504000000000e+11 0 0 1.5450849718745543e-01 -4.7552825814758271e-01 1.5450849718745543e-01 -4.7552825814758271e-01 0 0
1.505000000000e+11 0 0 -1.2988993328919298e-14 -5.0000000000000000e-01 -1.2988993328919298e-14 -5.0000000000000000e-01 0 0
1.506000000000e+11 0 0 -1.5450849718748014e-01 -4.7552825814757471e-01 -1.5450849718748014e-01 -4.7552825814757471e-01 0 0
1.507000000000e+11 0 0 -2.9389262614623701e-01 -4.0450849718747339e-01 -2.9389262614623701e-01 -4.0450849718747339e-01 0 0
1.508000000000e+11 0 0 -4.0450849718748710e-01 -2.9389262614621814e-01 -4.0450849718748710e-01 -2.9389262614621814e-01 0 0
1.509000000000e+11 0 0 -4.7552825814757310e-01 -1.5450849718748502e-01 -4.7552825814757310e-01 -1.5450849718748502e-01 0 0
1.510000000000e+11 0 0 -5.0000000000000000e-01 1.0293841899840239e-14 -5.0000000000000000e-01 1.0293841899840239e-14 0 0
1.511000000000e+11 0 0 -4.7552825814757554e-01 1.5450849718747758e-01 -4.7552825814757554e-01 1.5450849718747758e-01 0 0
1.512000000000e+11 0 0 -4.0450849718745829e-01 2.9389262614625783e-01 -4.0450849718745829e-01 2.9389262614625783e-01 0 0
1.513000000000e+11 0 0 -2.9389262614624334e-01 4.0450849718746879e-01 -2.9389262614624334e-01 4.0450849718746879e-01 0 0
1.514000000000e+11 0 0 -1.5450849718746057e-01 4.7552825814758104e-01 -1.5450849718746057e-01 4.7552825814758104e-01 0 0
1.515000000000e+11 0 0 7.5986904707611793e-15 5.0000000000000000e-01 7.5986904707611793e-15 5.0000000000000000e-01 0 0
1.516000000000e+11 0 0 1.5450849718747503e-01 4.7552825814757638e-01 1.5450849718747503e-01 4.7552825814757638e-01 0 0
1.517000000000e+11 0 0 2.9389262614623263e-01 4.0450849718747656e-01 2.9389262614623263e-01 4.0450849718747656e-01 0 0
1.518000000000e+11 0 0 4.0450849718748394e-01 2.9389262614622252e-01 4.0450849718748394e-01 2.9389262614622252e-01 0 0
1.519000000000e+11 0 0 4.7552825814757144e-01 1.5450849718749016e-01 4.7552825814757144e-01 1.5450849718749016e-01 0 0
1.520000000000e+11 0 0 5.0000000000000000e-01 -4.9035390416821198e-15 5.0000000000000000e-01 -4.9035390416821198e-15 0 0
1.521000000000e+11 0 0 4.7552825814757721e-01 -1.5450849718747245e-01 4.7552825814757721e-01 -1.5450849718747245e-01 0 0
1.522000000000e+11 0 0 4.0450849718746146e-01 -2.9389262614625344e-01 4.0450849718746146e-01 -2.9389262614625344e-01 0 0
1.523000000000e+11 0 0 2.9389262614624767e-01 -4.0450849718746562e-01 2.9389262614624767e-01 -4.0450849718746562e-01 0 0
1.524000000000e+11 0 0 1.5450849718746570e-01 -4.7552825814757937e-01 1.5450849718746570e-01 -4.7552825814757937e-01 0 0
1.525000000000e+11 0 0 -2.2083876126030600e-15 -5.0000000000000000e-01 -2.2083876126030600e-15 -5.0000000000000000e-01 0 0
1.526000000000e+11 0 0 -1.5450849718746990e-01 -4.7552825814757804e-01 -1.5450849718746990e-01 -4.7552825814757804e-01 0 0
1.527000000000e+11 0 0 -2.9389262614625128e-01 -4.0450849718746301e-01 -2.9389262614625128e-01 -4.0450849718746301e-01 0 0
1.528000000000e+11 0 0 -4.0450849718748072e-01 -2.9389262614622691e-01 -4.0450849718748072e-01 -2.9389262614622691e-01 0 0
1.529000000000e+11 0 0 -4.7552825814757854e-01 -1.5450849718746826e-01 -4.7552825814757854e-01 -1.5450849718746826e-01 0 0
1.530000000000e+11 0 0 -5.0000000000000000e-01 -4.8676381647599953e-16 -5.0000000000000000e-01 -4.8676381647599953e-16 0 0
1.531000000000e+11 0 0 -4.7552825814757005e-01 1.5450849718749435e-01 -4.7552825814757005e-01 1.5450849718749435e-01 0 0
1.532000000000e+11 0 0 -4.0450849718746462e-01 2.9389262614624911e-01 -4.0450849718746462e-01 2.9389262614624911e-01 0 0
1.533000000000e+11 0 0 -2.9389262614622907e-01 4.0450849718747917e-01 -2.9389262614622907e-01 4.0450849718747917e-01 0 0
1.534000000000e+11 0 0 -1.5450849718747081e-01 4.7552825814757771e-01 -1.5450849718747081e-01 4.7552825814757771e-01 0 0
1.535000000000e+11 0 0 2.5239794184848949e-14 5.0000000000000000e-01 2.5239794184848949e-14 5.0000000000000000e-01 0 0
1.536000000000e+11 0 0 1.5450849718746476e-01 4.7552825814757971e-01 1.5450849718746476e-01 4.7552825814757971e-01 0 0
1.537000000000e+11 0 0 2.9389262614624689e-01 4.0450849718746618e-01 2.9389262614624689e-01 4.0450849718746618e-01 0 0
1.538000000000e+11 0 0 4.0450849718747756e-01 2.9389262614623124e-01 4.0450849718747756e-01 2.9389262614623124e-01 0 0
1.539000000000e+11 0 0 4.7552825814757688e-01 1.5450849718747339e-01 4.7552825814757688e-01 1.5450849718747339e-01 0 0
1.540000000000e+11 0 0 5.0000000000000000e-01 5.8770666746341189e-15 5.0000000000000000e-01 5.8770666746341189e-15 0 0
1.541000000000e+11 0 0 4.7552825814757177e-01 -1.5450849718748924e-01 4.7552825814757177e-01 -1.5450849718748924e-01 0 0
1.542000000000e+11 0 0 4.0450849718746779e-01 -2.9389262614624473e-01 4.0450849718746779e-01 -2.9389262614624473e-01 0 0
1.543000000000e+11 0 0 2.9389262614623340e-01 -4.0450849718747600e-01 2.9389262614623340e-01 -4.0450849718747600e-01 0 0
1.544000000000e+11 0 0 1.5450849718747595e-01 -4.7552825814757604e-01 1.5450849718747595e-01 -4.7552825814757604e-01 0 0
1.545000000000e+11 0 0 -1.9849491326690830e-14 -5.0000000000000000e-01 -1.9849491326690830e-14 -5.0000000000000000e-01 0 0
1.546000000000e+11 0 0 -1.5450849718745965e-01 -4.7552825814758137e-01 -1.5450849718745965e-01 -4.7552825814758137e-01 0 0
1.547000000000e+11 0 0 -2.9389262614624256e-01 -4.0450849718746934e-01 -2.9389262614624256e-01 -4.0450849718746934e-01 0 0
1.548000000000e+11 0 0 -4.0450849718747439e-01 -2.9389262614623562e-01 -4.0450849718747439e-01 -2.9389262614623562e-01 0 0
1.549000000000e+11 0 0 -4.7552825814757521e-01 -1.5450849718747850e-01 -4.7552825814757521e-01 -1.5450849718747850e-01 0 0
1.550000000000e+11 0 0 -5.0000000000000000e-01 -1.1267369532792237e-14 -5.0000000000000000e-01 -1.1267369532792237e-14 0 0
1.551000000000e+11 0 0 -4.7552825814757338e-01 1.5450849718748411e-01 -4.7552825814757338e-01 1.5450849718748411e-01 0 0
1.552000000000e+11 0 0 -4.0450849718747095e-01 2.9389262614624034e-01 -4.0450849718747095e-01 2.9389262614624034e-01 0 0
1.553000000000e+11 0 0 -2.9389262614623779e-01 4.0450849718747284e-01 -2.9389262614623779e-01 4.0450849718747284e-01 0 0
1.554000000000e+11 0 0 -1.5450849718748108e-01 4.7552825814757438e-01 -1.5450849718748108e-01 4.7552825814757438e-01 0 0
1.555000000000e+11 0 0 1.4459188468532711e-14 5.0000000000000000e-01 1.4459188468532711e-14 5.0000000000000000e-01 0 0
1.556000000000e+11 0 0 1.5450849718748155e-01 4.7552825814757427e-01 1.5450849718748155e-01 4.7552825814757427e-01 0 0
1.557000000000e+11 0 0 2.9389262614623818e-01 4.0450849718747250e-01 2.9389262614623818e-01 4.0450849718747250e-01 0 0
1.558000000000e+11 0 0 4.0450849718748794e-01 2.9389262614621697e-01 4.0450849718748794e-01 2.9389262614621697e-01 0 0
1.559000000000e+11 0 0 4.7552825814757355e-01 1.5450849718748363e-01 4.7552825814757355e-01 1.5450849718748363e-01 0 0
1.560000000000e+11 0 0 5.0000000000000000e-01 -1.1764037039453651e-14 5.0000000000000000e-01 -1.1764037039453651e-14 0 0
1.561000000000e+11 0 0 4.7552825814757510e-01 -1.5450849718747897e-01 4.7552825814757510e-01 -1.5450849718747897e-01 0 0
1.562000000000e+11 0 0 4.0450849718745741e-01 -2.9389262614625900e-01 4.0450849718745741e-01 -2.9389262614625900e-01 0 0
1.563000000000e+11 0 0 2.9389262614624218e-01 -4.0450849718746967e-01 2.9389262614624218e-01 -4.0450849718746967e-01 0 0
1.564000000000e+11 0 0 1.5450849718745918e-01 -4.7552825814758154e-01 1.5450849718745918e-01 -4.7552825814758154e-01 0 0
1.565000000000e+11 0 0 -9.0688856103745919e-15 -5.0000000000000000e-01 -9.0688856103745919e-15 -5.0000000000000000e-01 0 0
1.566000000000e+11 0 0 -1.5450849718747642e-01 -4.7552825814757593e-01 -1.5450849718747642e-01 -4.7552825814757593e-01 0 0
1.567000000000e+11 0 0 -2.9389262614623385e-01 -4.0450849718747572e-01 -2.9389262614623385e-01 -4.0450849718747572e-01 0 0
1.568000000000e+11 0 0 -4.0450849718748477e-01 -2.9389262614622136e-01 -4.0450849718748477e-01 -2.9389262614622136e-01 0 0
1.569000000000e+11 0 0 -4.7552825814758071e-01 -1.5450849718746174e-01 -4.7552825814758071e-01 -1.5450849718746174e-01 0 0
1.570000000000e+11 0 0 -5.0000000000000000e-01 6.3737341812955316e-15 -5.0000000000000000e-01 6.3737341812955316e-15 0 0
1.571000000000e+11 0 0 -4.7552825814757677e-01 1.5450849718747386e-01 -4.7552825814757677e-01 1.5450849718747386e-01 0 0
1.572000000000e+11 0 0 -4.0450849718746057e-01 2.9389262614625467e-01 -4.0450849718746057e-01 2.9389262614625467e-01 0 0
1.573000000000e+11 0 0 -2.9389262614624651e-01 4.0450849718746651e-01 -2.9389262614624651e-01 4.0450849718746651e-01 0 0
1.574000000000e+11 0 0 -1.5450849718746429e-01 4.7552825814757982e-01 -1.5450849718746429e-01 4.7552825814757982e-01 0 0
1.575000000000e+11 0 0 3.6785827522164722e-15 5.0000000000000000e-01 3.6785827522164722e-15 5.0000000000000000e-01 0 0
1.576000000000e+11 0 0 1.5450849718747128e-01 4.7552825814757760e-01 1.5450849718747128e-01 4.7552825814757760e-01 0 0
1.577000000000e+11 0 0 2.9389262614622946e-01 4.0450849718747889e-01 2.9389262614622946e-01 4.0450849718747889e-01 0 0
1.578000000000e+11 0 0 4.0450849718748161e-01 2.9389262614622569e-01 4.0450849718748161e-01 2.9389262614622569e-01 0 0
1.579000000000e+11 0 0 4.7552825814757904e-01 1.5450849718746687e-01 4.7552825814757904e-01 1.5450849718746687e-01 0 0
1.580000000000e+11 0 0 5.0000000000000000e-01 -9.8343132313741267e-16 5.0000000000000000e-01 -9.8343132313741267e-16 0 0
1.581000000000e+11 0 0 4.7552825814757843e-01 -1.5450849718746873e-01 4.7552825814757843e-01 -1.5450849718746873e-01 0 0
1.582000000000e+11 0 0 4.0450849718746373e-01 -2.9389262614625028e-01 4.0450849718746373e-01 -2.9389262614625028e-01 0 0
1.583000000000e+11 0 0 2.9389262614625089e-01 -4.0450849718746329e-01 2.9389262614625089e-01 -4.0450849718746329e-01 0 0
1.584000000000e+11 0 0 1.5450849718746942e-01 -4.7552825814757815e-01 1.5450849718746942e-01 -4.7552825814757815e-01 0 0
1.585000000000e+11 0 0 -2.6709989324462361e-14 -5.0000000000000000e-01 -2.6709989324462361e-14 -5.0000000000000000e-01 0 0
1.586000000000e+11 0 0 -1.5450849718746618e-01 -4.7552825814757926e-01 -1.5450849718746618e-01 -4.7552825814757926e-01 0 0
1.587000000000e+11 0 0 -2.9389262614624811e-01 -4.0450849718746534e-01 -2.9389262614624811e-01 -4.0450849718746534e-01 0 0
1.588000000000e+11 0 0 -4.0450849718747844e-01 -2.9389262614623007e-01 -4.0450849718747844e-01 -2.9389262614623007e-01 0 0
1.589000000000e+11 0 0 -4.7552825814758615e-01 -1.5450849718744494e-01 -4.7552825814758615e-01 -1.5450849718744494e-01 0 0
1.590000000000e+11 0 0 -5.0000000000000000e-01 -4.4068715350207063e-15 -5.0000000000000000e-01 -4.4068715350207063e-15 0 0
1.591000000000e+11 0 0 -4.7552825814757127e-01 1.5450849718749063e-01 -4.7552825814757127e-01 1.5450849718749063e-01 0 0
1.592000000000e+11 0 0 -4.0450849718746690e-01 2.9389262614624589e-01 -4.0450849718746690e-01 2.9389262614624589e-01 0 0
1.593000000000e+11 0 0 -2.9389262614623224e-01 4.0450849718747683e-01 -2.9389262614623224e-01 4.0450849718747683e-01 0 0
1.594000000000e+11 0 0 -1.5450849718747456e-01 4.7552825814757649e-01 -1.5450849718747456e-01 4.7552825814757649e-01 0 0
1.595000000000e+11 0 0 2.1319686466304242e-14 5.0000000000000000e-01 2.1319686466304242e-14 5.0000000000000000e-01 0 0
1.596000000000e+11 0 0 1.5450849718746104e-01 4.7552825814758093e-01 1.5450849718746104e-01 4.7552825814758093e-01 0 0
1.597000000000e+11 0 0 2.9389262614624373e-01 4.0450849718746851e-01 2.9389262614624373e-01 4.0450849718746851e-01 0 0
1.598000000000e+11 0 0 4.0450849718747528e-01 2.9389262614623440e-01 4.0450849718747528e-01 2.9389262614623440e-01 0 0
1.599000000000e+11 0 0 4.7552825814758448e-01 1.5450849718745008e-01 4.7552825814758448e-01 1.5450849718745008e-01 0 0
1.600000000000e+11 0 0 5.0000000000000000e-01 9.7971743931788261e-15 5.0000000000000000e-01 9.7971743931788261e-15 0 0
1.601000000000e+11 0 0 4.7552825814757294e-01 -1.5450849718748549e-01 4.7552825814757294e-01 -1.5450849718748549e-01 0 0
1.602000000000e+11 0 0 4.0450849718747006e-01 -2.9389262614624156e-01 4.0450849718747006e-01 -2.9389262614624156e-01 0 0
1.603000000000e+11 0 0 2.9389262614623662e-01 -4.0450849718747367e-01 2.9389262614623662e-01 -4.0450849718747367e-01 0 0
1.604000000000e+11 0 0 1.5450849718747967e-01 -4.7552825814757482e-01 1.5450849718747967e-01 -4.7552825814757482e-01 0 0
1.605000000000e+11 0 0 -1.5929383608146123e-14 -5.0000000000000000e-01 -1.5929383608146123e-14 -5.0000000000000000e-01 0 0
1.606000000000e+11 0 0 -1.5450849718745591e-01 -4.7552825814758259e-01 -1.5450849718745591e-01 -4.7552825814758259e-01 0 0
1.607000000000e+11 0 0 -2.9389262614623940e-01 -4.0450849718747167e-01 -2.9389262614623940e-01 -4.0450849718747167e-01 0 0
1.608000000000e+11 0 0 -4.0450849718747212e-01 -2.9389262614623879e-01 -4.0450849718747212e-01 -2.9389262614623879e-01 0 0
1.609000000000e+11 0 0 -4.7552825814758282e-01 -1.5450849718745521e-01 -4.7552825814758282e-01 -1.5450849718745521e-01 0 0
1.610000000000e+11 0 0 -5.0000000000000000e-01 -1.5187477251336943e-14 -5.0000000000000000e-01 -1.5187477251336943e-14 0 0
1.611000000000e+11 0 0 -4.7552825814757460e-01 1.5450849718748039e-01 -4.7552825814757460e-01 1.5450849718748039e-01 0 0
1.612000000000e+11 0 0 -4.0450849718747328e-01 2.9389262614623718e-01 -4.0450849718747328e-01 2.9389262614623718e-01 0 0
1.613000000000e+11 0 0 -2.9389262614624095e-01 4.0450849718747051e-01 -2.9389262614624095e-01 4.0450849718747051e-01 0 0
1.614000000000e+11 0 0 -1.5450849718745777e-01 4.7552825814758198e-01 -1.5450849718745777e-01 4.7552825814758198e-01 0 0
1.615000000000e+11 0 0 1.0539080749988003e-14 5.0000000000000000e-01 1.0539080749988003e-14 5.0000000000000000e-01 0 0
1.616000000000e+11 0 0 1.5450849718750484e-01 4.7552825814756666e-01 1.5450849718750484e-01 4.7552825814756666e-01 0 0
1.617000000000e+11 0 0 2.9389262614623501e-01 4.0450849718747484e-01 2.9389262614623501e-01 4.0450849718747484e-01 0 0
1.618000000000e+11 0 0 4.0450849718748566e-01 2.9389262614622014e-01 4.0450849718748566e-01 2.9389262614622014e-01 0 0
1.619000000000e+11 0 0 4.7552825814758115e-01 1.5450849718746032e-01 4.7552825814758115e-01 1.5450849718746032e-01 0 0
1.620000000000e+11 0 0 5.0000000000000000e-01 -7.8439293209089434e-15 5.0000000000000000e-01 -7.8439293209089434e-15 0 0
1.621000000000e+11 0 0 4.7552825814757627e-01 -1.5450849718747525e-01 4.7552825814757627e-01 -1.5450849718747525e-01 0 0
1.622000000000e+11 0 0 4.0450849718745974e-01 -2.9389262614625583e-01 4.0450849718745974e-01 -2.9389262614625583e-01 0 0
1.623000000000e+11 0 0 2.9389262614624534e-01 -4.0450849718746734e-01 2.9389262614624534e-01 -4.0450849718746734e-01 0 0
1.624000000000e+11 0 0 1.5450849718746290e-01 -4.7552825814758032e-01 1.5450849718746290e-01 -4.7552825814758032e-01 0 0
1.625000000000e+11 0 0 -5.1487778918298848e-15 -5.0000000000000000e-01 -5.1487778918298848e-15 -5.0000000000000000e-01 0 0
1.626000000000e+11 0 0 -1.5450849718749973e-01 -4.7552825814756833e-01 -1.5450849718749973e-01 -4.7552825814756833e-01 0 0
1.627000000000e+11 0 0 -2.9389262614623068e-01 -4.0450849718747800e-01 -2.9389262614623068e-01 -4.0450849718747800e-01 0 0
1.628000000000e+11 0 0 -4.0450849718748244e-01 -2.9389262614622452e-01 -4.0450849718748244e-01 -2.9389262614622452e-01 0 0
1.629000000000e+11 0 0 -4.7552825814757949e-01 -1.5450849718746545e-01 -4.7552825814757949e-01 -1.5450849718746545e-01 0 0
1.630000000000e+11 0 0 -5.0000000000000000e-01 3.0875335893154833e-14 -5.0000000000000000e-01 3.0875335893154833e-14 0 0
1.631000000000e+11 0 0 -4.7552825814756916e-01 1.5450849718749715e-01 -4.7552825814756916e-01 1.5450849718749715e-01 0 0
1.632000000000e+11 0 0 -4.0450849718746290e-01 2.9389262614625145e-01 -4.0450849718746290e-01 2.9389262614625145e-01 0 0
1.633000000000e+11 0 0 -2.9389262614622669e-01 4.0450849718748089e-01 -2.9389262614622669e-01 4.0450849718748089e-01 0 0
1.634000000000e+11 0 0 -1.5450849718746804e-01 4.7552825814757865e-01 -1.5450849718746804e-01 4.7552825814757865e-01 0 0
1.635000000000e+11 0 0 -2.4152496632823466e-16 5.0000000000000000e-01 -2.4152496632823466e-16 5.0000000000000000e-01 0 0
1.636000000000e+11 0 0 1.5450849718746756e-01 4.7552825814757876e-01 1.5450849718746756e-01 4.7552825814757876e-01 0 0
1.637000000000e+11 0 0 2.9389262614622630e-01 4.0450849718748116e-01 2.9389262614622630e-01 4.0450849718748116e-01 0 0
1.638000000000e+11 0 0 4.0450849718746262e-01 2.9389262614625189e-01 4.0450849718746262e-01 2.9389262614625189e-01 0 0
1.639000000000e+11 0 0 4.7552825814756899e-01 1.5450849718749762e-01 4.7552825814756899e-01 1.5450849718749762e-01 0 0
1.640000000000e+11 0 0 5.0000000000000000e-01 -2.5485033034996715e-14 5.0000000000000000e-01 -2.5485033034996715e-14 0 0
1.641000000000e+11 0 0 4.7552825814757083e-01 -1.5450849718749204e-01 4.7552825814757083e-01 -1.5450849718749204e-01 0 0
1.642000000000e+11 0 0 4.0450849718746607e-01 -2.9389262614624712e-01 4.0450849718746607e-01 -2.9389262614624712e-01 0 0
1.643000000000e+11 0 0 2.9389262614623107e-01 -4.0450849718747772e-01 2.9389262614623107e-01 -4.0450849718747772e-01 0 0
1.644000000000e+11 0 0 1.5450849718747314e-01 -4.7552825814757699e-01 1.5450849718747314e-01 -4.7552825814757699e-01 0 0
1.645000000000e+11 0 0 5.6318278244863540e-15 -5.0000000000000000e-01 5.6318278244863540e-15 -5.0000000000000000e-01 0 0
1.646000000000e+11 0 0 -1.5450849718746243e-01 -4.7552825814758043e-01 -1.5450849718746243e-01 -4.7552825814758043e-01 0 0
1.647000000000e+11 0 0 -2.9389262614626793e-01 -4.0450849718745091e-01 -2.9389262614626793e-01 -4.0450849718745091e-01 0 0
1.648000000000e+11 0 0 -4.0450849718745940e-01 -2.9389262614625622e-01 -4.0450849718745940e-01 -2.9389262614625622e-01 0 0
1.649000000000e+11 0 0 -4.7552825814758493e-01 -1.5450849718744869e-01 -4.7552825814758493e-01 -1.5450849718744869e-01 0 0
1.650000000000e+11 0 0 -5.0000000000000000e-01 2.0094730176838596e-14 -5.0000000000000000e-01 2.0094730176838596e-14 0 0
1.651000000000e+11 0 0 -4.7552825814757249e-01 1.5450849718748691e-01 -4.7552825814757249e-01 1.5450849718748691e-01 0 0
1.652000000000e+11 0 0 -4.0450849718746923e-01 2.9389262614624273e-01 -4.0450849718746923e-01 2.9389262614624273e-01 0 0
1.653000000000e+11 0 0 -2.9389262614623540e-01 4.0450849718747456e-01 -2.9389262614623540e-01 4.0450849718747456e-01 0 0
1.654000000000e+11 0 0 -1.5450849718747828e-01 4.7552825814757532e-01 -1.5450849718747828e-01 4.7552825814757532e-01 0 0
1.655000000000e+11 0 0 -1.1022130682644473e-14 5.0000000000000000e-01 -1.1022130682644473e-14 5.0000000000000000e-01 0 0
1.656000000000e+11 0 0 1.5450849718745732e-01 4.7552825814758209e-01 1.5450849718745732e-01 4.7552825814758209e-01 0 0
1.657000000000e+11 0 0 2.9389262614626355e-01 4.0450849718745407e-01 2.9389262614626355e-01 4.0450849718745407e-01 0 0
1.658000000000e+11 0 0 4.0450849718745624e-01 2.9389262614626060e-01 4.0450849718745624e-01 2.9389262614626060e-01 0 0
1.659000000000e+11 0 0 4.7552825814758326e-01 1.5450849718745380e-01 4.7552825814758326e-01 1.5450849718745380e-01 0 0
1.660000000000e+11 0 0 5.0000000000000000e-01 -1.4704427318680477e-14 5.0000000000000000e-01 -1.4704427318680477e-14 0 0
1.661000000000e+11 0 0 4.7552825814757416e-01 -1.5450849718748177e-01 4.7552825814757416e-01 -1.5450849718748177e-01 0 0
1.662000000000e+11 0 0 4.0450849718747239e-01 -2.9389262614623840e-01 4.0450849718747239e-01 -2.9389262614623840e-01 0 0
1.663000000000e+11 0 0 2.9389262614623979e-01 -4.0450849718747139e-01 2.9389262614623979e-01 -4.0450849718747139e-01 0 0
1.664000000000e+11 0 0 1.5450849718748341e-01 -4.7552825814757366e-01 1.5450849718748341e-01 -4.7552825814757366e-01 0 0
1.665000000000e+11 0 0 1.6412433540802590e-14 -5.0000000000000000e-01 1.6412433540802590e-14 -5.0000000000000000e-01 0 0
1.666000000000e+11 0 0 -1.5450849718745219e-01 -4.7552825814758376e-01 -1.5450849718745219e-01 -4.7552825814758376e-01 0 0
1.667000000000e+11 0 0 -2.9389262614625922e-01 -4.0450849718745724e-01 -2.9389262614625922e-01 -4.0450849718745724e-01 0 0
1.668000000000e+11 0 0 -4.0450849718745308e-01 -2.9389262614626493e-01 -4.0450849718745308e-01 -2.9389262614626493e-01 0 0
1.669000000000e+11 0 0 -4.7552825814758160e-01 -1.5450849718745893e-01 -4.7552825814758160e-01 -1.5450849718745893e-01 0 0
1.670000000000e+11 0 0 -5.0000000000000000e-01 9.3141244605223560e-15 -5.0000000000000000e-01 9.3141244605223560e-15 0 0
1.671000000000e+11 0 0 -4.7552825814757582e-01 1.5450849718747664e-01 -4.7552825814757582e-01 1.5450849718747664e-01 0 0
1.672000000000e+11 0 0 -4.0450849718747556e-01 2.9389262614623402e-01 -4.0450849718747556e-01 2.9389262614623402e-01 0 0
1.673000000000e+11 0 0 -2.9389262614624412e-01 4.0450849718746823e-01 -2.9389262614624412e-01 4.0450849718746823e-01 0 0
1.674000000000e+11 0 0 -1.5450849718743448e-01 4.7552825814758953e-01 -1.5450849718743448e-01 4.7552825814758953e-01 0 0
1.675000000000e+11 0 0 -2.1802736398960712e-14 5.0000000000000000e-01 -2.1802736398960712e-14 5.0000000000000000e-01 0 0
1.676000000000e+11 0 0 1.5450849718750112e-01 4.7552825814756788e-01 1.5450849718750112e-01 4.7552825814756788e-01 0 0
1.677000000000e+11 0 0 2.9389262614625483e-01 4.0450849718746046e-01 2.9389262614625483e-01 4.0450849718746046e-01 0 0
1.678000000000e+11 0 0 4.0450849718748333e-01 2.9389262614622330e-01 4.0450849718748333e-01 2.9389262614622330e-01 0 0
1.679000000000e+11 0 0 4.7552825814757993e-01 1.5450849718746407e-01 4.7552825814757993e-01 1.5450849718746407e-01 0 0
1.680000000000e+11 0 0 5.0000000000000000e-01 -3.9238216023642371e-15 5.0000000000000000e-01 -3.9238216023642371e-15 0 0
1.681000000000e+11 0 0 4.7552825814757749e-01 -1.5450849718747153e-01 4.7552825814757749e-01 -1.5450849718747153e-01 0 0
1.682000000000e+11 0 0 4.0450849718747872e-01 -2.9389262614622969e-01 4.0450849718747872e-01 -2.9389262614622969e-01 0 0
1.683000000000e+11 0 0 2.9389262614624850e-01 -4.0450849718746507e-01 2.9389262614624850e-01 -4.0450849718746507e-01 0 0
1.684000000000e+11 0 0 1.5450849718743959e-01 -4.7552825814758787e-01 1.5450849718743959e-01 -4.7552825814758787e-01 0 0
1.685000000000e+11 0 0 2.7193039257118831e-14 -5.0000000000000000e-01 2.7193039257118831e-14 -5.0000000000000000e-01 0 0
1.686000000000e+11 0 0 -1.5450849718749599e-01 -4.7552825814756955e-01 -1.5450849718749599e-01 -4.7552825814756955e-01 0 0
1.687000000000e+11 0 0 -2.9389262614625050e-01 -4.0450849718746362e-01 -2.9389262614625050e-01 -4.0450849718746362e-01 0 0
1.688000000000e+11 0 0 -4.0450849718748016e-01 -2.9389262614622769e-01 -4.0450849718748016e-01 -2.9389262614622769e-01 0 0
1.689000000000e+11 0 0 -4.7552825814757826e-01 -1.5450849718746917e-01 -4.7552825814757826e-01 -1.5450849718746917e-01 0 0
1.690000000000e+11 0 0 -5.0000000000000000e-01 -1.4664812557938821e-15 -5.0000000000000000e-01 -1.4664812557938821e-15 0 0
1.691000000000e+11 0 0 -4.7552825814757915e-01 1.5450849718746640e-01 -4.7552825814757915e-01 1.5450849718746640e-01 0 0
1.692000000000e+11 0 0 -4.0450849718748189e-01 2.9389262614622530e-01 -4.0450849718748189e-01 2.9389262614622530e-01 0 0
1.693000000000e+11 0 0 -2.9389262614625283e-01 4.0450849718746185e-01 -2.9389262614625283e-01 4.0450849718746185e-01 0 0
1.694000000000e+11 0 0 -1.5450849718744472e-01 4.7552825814758620e-01 -1.5450849718744472e-01 4.7552825814758620e-01 0 0
1.695000000000e+11 0 0 -3.2583342115276947e-14 5.0000000000000000e-01 -3.2583342115276947e-14 5.0000000000000000e-01 0 0
1.696000000000e+11 0 0 1.5450849718749088e-01 4.7552825814757121e-01 1.5450849718749088e-01 4.7552825814757121e-01 0 0
1.697000000000e+11 0 0 2.9389262614624612e-01 4.0450849718746679e-01 2.9389262614624612e-01 4.0450849718746679e-01 0 0
1.698000000000e+11 0 0 4.0450849718747700e-01 2.9389262614623202e-01 4.0450849718747700e-01 2.9389262614623202e-01 0 0
1.699000000000e+11 0 0 4.7552825814757660e-01 1.5450849718747431e-01 4.7552825814757660e-01 1.5450849718747431e-01 0 0
1.700000000000e+11 0 0 5.0000000000000000e-01 6.8567841139520009e-15 5.0000000000000000e-01 6.8567841139520009e-15 0 0
1.701000000000e+11 0 0 4.7552825814758082e-01 -1.5450849718746126e-01 4.7552825814758082e-01 -1.5450849718746126e-01 0 0
1.702000000000e+11 0 0 4.0450849718748505e-01 -2.9389262614622097e-01 4.0450849718748505e-01 -2.9389262614622097e-01 0 0
1.703000000000e+11 0 0 2.9389262614621126e-01 -4.0450849718749210e-01 2.9389262614621126e-01 -4.0450849718749210e-01 0 0
1.704000000000e+11 0 0 1.5450849718744986e-01 -4.7552825814758454e-01 1.5450849718744986e-01 -4.7552825814758454e-01 0 0
1.705000000000e+11 0 0 -1.8869773887372946e-14 -5.0000000000000000e-01 -1.8869773887372946e-14 -5.0000000000000000e-01 0 0
1.706000000000e+11 0 0 -1.5450849718748574e-01 -4.7552825814757288e-01 -1.5450849718748574e-01 -4.7552825814757288e-01 0 0
1.707000000000e+11 0 0 -2.9389262614624179e-01 -4.0450849718746995e-01 -2.9389262614624179e-01 -4.0450849718746995e-01 0 0
1.708000000000e+11 0 0 -4.0450849718747384e-01 -2.9389262614623640e-01 -4.0450849718747384e-01 -2.9389262614623640e-01 0 0
1.709000000000e+11 0 0 -4.7552825814757493e-01 -1.5450849718747944e-01 -4.7552825814757493e-01 -1.5450849718747944e-01 0 0
1.710000000000e+11 0 0 -5.0000000000000000e-01 -1.2247086972110120e-14 -5.0000000000000000e-01 -1.2247086972110120e-14 0 0
1.711000000000e+11 0 0 -4.7552825814756494e-01 1.5450849718751020e-01 -4.7552825814756494e-01 1.5450849718751020e-01 0 0
1.712000000000e+11 0 0 -4.0450849718748821e-01 2.9389262614621658e-01 -4.0450849718748821e-01 2.9389262614621658e-01 0 0
1.713000000000e+11 0 0 -2.9389262614621559e-01 4.0450849718748894e-01 -2.9389262614621559e-01 4.0450849718748894e-01 0 0
1.714000000000e+11 0 0 -1.5450849718745496e-01 4.7552825814758287e-01 -1.5450849718745496e-01 4.7552825814758287e-01 0 0
1.715000000000e+11 0 0 1.3479471029214828e-14 5.0000000000000000e-01 1.3479471029214828e-14 5.0000000000000000e-01 0 0
1.716000000000e+11 0 0 1.5450849718748061e-01 4.7552825814757455e-01 1.5450849718748061e-01 4.7552825814757455e-01 0 0
1.717000000000e+11 0 0 2.9389262614623740e-01 4.0450849718747312e-01 2.9389262614623740e-01 4.0450849718747312e-01 0 0
1.718000000000e+11 0 0 4.0450849718747067e-01 2.9389262614624079e-01 4.0450849718747067e-01 2.9389262614624079e-01 0 0
1.719000000000e+11 0 0 4.7552825814757327e-01 1.5450849718748458e-01 4.7552825814757327e-01 1.5450849718748458e-01 0 0
1.720000000000e+11 0 0 5.0000000000000000e-01 1.7637389830268240e-14 5.0000000000000000e-01 1.7637389830268240e-14 0 0
1.721000000000e+11 0 0 4.7552825814756661e-01 -1.5450849718750509e-01 4.7552825814756661e-01 -1.5450849718750509e-01 0 0
1.722000000000e+11 0 0 4.0450849718749138e-01 -2.9389262614621225e-01 4.0450849718749138e-01 -2.9389262614621225e-01 0 0
1.723000000000e+11 0 0 2.9389262614621997e-01 -4.0450849718748577e-01 2.9389262614621997e-01 -4.0450849718748577e-01 0 0
1.724000000000e+11 0 0 1.5450849718746010e-01 -4.7552825814758121e-01 1.5450849718746010e-01 -4.7552825814758121e-01 0 0
1.725000000000e+11 0 0 -8.0891681710567092e-15 -5.0000000000000000e-01 -8.0891681710567092e-15 -5.0000000000000000e-01 0 0
1.726000000000e+11 0 0 -1.5450849718747547e-01 -4.7552825814757621e-01 -1.5450849718747547e-01 -4.7552825814757621e-01 0 0
1.727000000000e+11 0 0 -2.9389262614623302e-01 -4.0450849718747628e-01 -2.9389262614623302e-01 -4.0450849718747628e-01 0 0
1.728000000000e+11 0 0 -4.0450849718746751e-01 -2.9389262614624512e-01 -4.0450849718746751e-01 -2.9389262614624512e-01 0 0
1.729000000000e+11 0 0 -4.7552825814757160e-01 -1.5450849718748969e-01 -4.7552825814757160e-01 -1.5450849718748969e-01 0 0
1.730000000000e+11 0 0 -5.0000000000000000e-01 -2.3027692688426359e-14 -5.0000000000000000e-01 -2.3027692688426359e-14 0 0
1.731000000000e+11 0 0 -4.7552825814756827e-01 1.5450849718749995e-01 -4.7552825814756827e-01 1.5450849718749995e-01 0 0
1.732000000000e+11 0 0 -4.0450849718746112e-01 2.9389262614625383e-01 -4.0450849718746112e-01 2.9389262614625383e-01 0 0
1.733000000000e+11 0 0 -2.9389262614622430e-01 4.0450849718748261e-01 -2.9389262614622430e-01 4.0450849718748261e-01 0 0
1.734000000000e+11 0 0 -1.5450849718746523e-01 4.7552825814757954e-01 -1.5450849718746523e-01 4.7552825814757954e-01 0 0
1.735000000000e+11 0 0 2.6988653128985898e-15 5.0000000000000000e-01 2.6988653128985898e-15 5.0000000000000000e-01 0 0
1.736000000000e+11 0 0 1.5450849718747037e-01 4.7552825814757788e-01 1.5450849718747037e-01 4.7552825814757788e-01 0 0
1.737000000000e+11 0 0 2.9389262614622869e-01 4.0450849718747944e-01 2.9389262614622869e-01 4.0450849718747944e-01 0 0
1.738000000000e+11 0 0 4.0450849718749771e-01 2.9389262614620348e-01 4.0450849718749771e-01 2.9389262614620348e-01 0 0
1.739000000000e+11 0 0 4.7552825814756994e-01 1.5450849718749482e-01 4.7552825814756994e-01 1.5450849718749482e-01 0 0
1.740000000000e+11 0 0 5.0000000000000000e-01 -2.8425423314223540e-14 5.0000000000000000e-01 -2.8425423314223540e-14 0 0
1.741000000000e+11 0 0 4.7552825814756994e-01 -1.5450849718749482e-01 4.7552825814756994e-01 -1.5450849718749482e-01 0 0
1.742000000000e+11 0 0 4.0450849718746434e-01 -2.9389262614624950e-01 4.0450849718746434e-01 -2.9389262614624950e-01 0 0
1.743000000000e+11 0 0 2.9389262614622869e-01 -4.0450849718747944e-01 2.9389262614622869e-01 -4.0450849718747944e-01 0 0
1.744000000000e+11 0 0 1.5450849718747034e-01 -4.7552825814757788e-01 1.5450849718747034e-01 -4.7552825814757788e-01 0 0
1.745000000000e+11 0 0 2.6914375452595296e-15 -5.0000000000000000e-01 2.6914375452595296e-15 -5.0000000000000000e-01 0 0
1.746000000000e+11 0 0 -1.5450849718746523e-01 -4.7552825814757954e-01 -1.5450849718746523e-01 -4.7552825814757954e-01 0 0
1.747000000000e+11 0 0 -2.9389262614622430e-01 -4.0450849718748261e-01 -2.9389262614622430e-01 -4.0450849718748261e-01 0 0
1.748000000000e+11 0 0 -4.0450849718749460e-01 -2.9389262614620787e-01 -4.0450849718749460e-01 -2.9389262614620787e-01 0 0
1.749000000000e+11 0 0 -4.7552825814756827e-01 -1.5450849718749995e-01 -4.7552825814756827e-01 -1.5450849718749995e-01 0 0
1.750000000000e+11 0 0 -5.0000000000000000e-01 -3.3808298404742594e-14 -5.0000000000000000e-01 -3.3808298404742594e-14 0 0
1.751000000000e+11 0 0 -4.7552825814757160e-01 1.5450849718748971e-01 -4.7552825814757160e-01 1.5450849718748971e-01 0 0
1.752000000000e+11 0 0 -4.0450849718746751e-01 2.9389262614624512e-01 -4.0450849718746751e-01 2.9389262614624512e-01 0 0
1.753000000000e+11 0 0 -2.9389262614623302e-01 4.0450849718747628e-01 -2.9389262614623302e-01 4.0450849718747628e-01 0 0
1.754000000000e+11 0 0 -1.5450849718747547e-01 4.7552825814757621e-01 -1.5450849718747547e-01 4.7552825814757621e-01 0 0
1.755000000000e+11 0 0 -8.0817404034176478e-15 5.0000000000000000e-01 -8.0817404034176478e-15 5.0000000000000000e-01 0 0
1.756000000000e+11 0 0 1.5450849718746010e-01 4.7552825814758121e-01 1.5450849718746010e-01 4.7552825814758121e-01 0 0
1.757000000000e+11 0 0 2.9389262614626593e-01 4.0450849718745235e-01 2.9389262614626593e-01 4.0450849718745235e-01 0 0
1.758000000000e+11 0 0 4.0450849718745796e-01 2.9389262614625822e-01 4.0450849718745796e-01 2.9389262614625822e-01 0 0
1.759000000000e+11 0 0 4.7552825814756661e-01 1.5450849718750506e-01 4.7552825814756661e-01 1.5450849718750506e-01 0 0
1.760000000000e+11 0 0 5.0000000000000000e-01 -1.7644817597907299e-14 5.0000000000000000e-01 -1.7644817597907299e-14 0 0
1.761000000000e+11 0 0 4.7552825814757327e-01 -1.5450849718748458e-01 4.7552825814757327e-01 -1.5450849718748458e-01 0 0
1.762000000000e+11 0 0 4.0450849718743725e-01 -2.9389262614628675e-01 4.0450849718743725e-01 -2.9389262614628675e-01 0 0
1.763000000000e+11 0 0 2.9389262614623740e-01 -4.0450849718747312e-01 2.9389262614623740e-01 -4.0450849718747312e-01 0 0
1.764000000000e+11 0 0 1.5450849718748061e-01 -4.7552825814757455e-01 1.5450849718748061e-01 -4.7552825814757455e-01 0 0
1.765000000000e+11 0 0 -4.3371375599232250e-14 -5.0000000000000000e-01 -4.3371375599232250e-14 -5.0000000000000000e-01 0 0
1.766000000000e+11 0 0 -1.5450849718750903e-01 -4.7552825814756533e-01 -1.5450849718750903e-01 -4.7552825814756533e-01 0 0
1.767000000000e+11 0 0 -2.9389262614621559e-01 -4.0450849718748894e-01 -2.9389262614621559e-01 -4.0450849718748894e-01 0 0
1.768000000000e+11 0 0 -4.0450849718748821e-01 -2.9389262614621658e-01 -4.0450849718748821e-01 -2.9389262614621658e-01 0 0
1.769000000000e+11 0 0 -4.7552825814758248e-01 -1.5450849718745613e-01 -4.7552825814758248e-01 -1.5450849718745613e-01 0 0
1.770000000000e+11 0 0 -5.0000000000000000e-01 1.2254514739749180e-14 -5.0000000000000000e-01 1.2254514739749180e-14 0 0
1.771000000000e+11 0 0 -4.7552825814757493e-01 1.5450849718747944e-01 -4.7552825814757493e-01 1.5450849718747944e-01 0 0
1.772000000000e+11 0 0 -4.0450849718747384e-01 2.9389262614623640e-01 -4.0450849718747384e-01 2.9389262614623640e-01 0 0
1.773000000000e+11 0 0 -2.9389262614624173e-01 4.0450849718746995e-01 -2.9389262614624173e-01 4.0450849718746995e-01 0 0
1.774000000000e+11 0 0 -1.5450849718743168e-01 4.7552825814759042e-01 -1.5450849718743168e-01 4.7552825814759042e-01 0 0
1.775000000000e+11 0 0 -1.8862346119733887e-14 5.0000000000000000e-01 -1.8862346119733887e-14 5.0000000000000000e-01 0 0
1.776000000000e+11 0 0 1.5450849718744986e-01 4.7552825814758454e-01 1.5450849718744986e-01 4.7552825814758454e-01 0 0
1.777000000000e+11 0 0 2.9389262614625722e-01 4.0450849718745868e-01 2.9389262614625722e-01 4.0450849718745868e-01 0 0
1.778000000000e+11 0 0 4.0450849718748505e-01 2.9389262614622091e-01 4.0450849718748505e-01 2.9389262614622091e-01 0 0
1.779000000000e+11 0 0 4.7552825814756328e-01 1.5450849718751533e-01 4.7552825814756328e-01 1.5450849718751533e-01 0 0
1.780000000000e+11 0 0 5.0000000000000000e-01 -6.8642118815910615e-15 5.0000000000000000e-01 -6.8642118815910615e-15 0 0
1.781000000000e+11 0 0 4.7552825814757660e-01 -1.5450849718747431e-01 4.7552825814757660e-01 -1.5450849718747431e-01 0 0
1.782000000000e+11 0 0 4.0450849718744358e-01 -2.9389262614627804e-01 4.0450849718744358e-01 -2.9389262614627804e-01 0 0
1.783000000000e+11 0 0 2.9389262614624612e-01 -4.0450849718746679e-01 2.9389262614624612e-01 -4.0450849718746679e-01 0 0
1.784000000000e+11 0 0 1.5450849718749085e-01 -4.7552825814757121e-01 1.5450849718749085e-01 -4.7552825814757121e-01 0 0
1.785000000000e+11 0 0 -3.2590769882916012e-14 -5.0000000000000000e-01 -3.2590769882916012e-14 -5.0000000000000000e-01 0 0
1.786000000000e+11 0 0 -1.5450849718749879e-01 -4.7552825814756866e-01 -1.5450849718749879e-01 -4.7552825814756866e-01 0 0
1.787000000000e+11 0 0 -2.9389262614620687e-01 -4.0450849718749526e-01 -2.9389262614620687e-01 -4.0450849718749526e-01 0 0
1.788000000000e+11 0 0 -4.0450849718748189e-01 -2.9389262614622530e-01 -4.0450849718748189e-01 -2.9389262614622530e-01 0 0
1.789000000000e+11 0 0 -4.7552825814757915e-01 -1.5450849718746640e-01 -4.7552825814757915e-01 -1.5450849718746640e-01 0 0
1.790000000000e+11 0 0 -5.0000000000000000e-01 1.4739090234329423e-15 -5.0000000000000000e-01 1.4739090234329423e-15 0 0
1.791000000000e+11 0 0 -4.7552825814756067e-01 1.5450849718752327e-01 -4.7552825814756067e-01 1.5450849718752327e-01 0 0
1.792000000000e+11 0 0 -4.0450849718748016e-01 2.9389262614622769e-01 -4.0450849718748016e-01 2.9389262614622769e-01 0 0
1.793000000000e+11 0 0 -2.9389262614625050e-01 4.0450849718746362e-01 -2.9389262614625050e-01 4.0450849718746362e-01 0 0
1.794000000000e+11 0 0 -1.5450849718744192e-01 4.7552825814758709e-01 -1.5450849718744192e-01 4.7552825814758709e-01 0 0
1.795000000000e+11 0 0 2.7200467024757890e-14 5.0000000000000000e-01 2.7200467024757890e-14 5.0000000000000000e-01 0 0
1.796000000000e+11 0 0 1.5450849718743961e-01 4.7552825814758787e-01 1.5450849718743961e-01 4.7552825814758787e-01 0 0
1.797000000000e+11 0 0 2.9389262614624850e-01 4.0450849718746501e-01 2.9389262614624850e-01 4.0450849718746501e-01 0 0
1.798000000000e+11 0 0 4.0450849718747872e-01 2.9389262614622969e-01 4.0450849718747872e-01 2.9389262614622969e-01 0 0
1.799000000000e+11 0 0 4.7552825814759508e-01 1.5450849718741747e-01 4.7552825814759508e-01 1.5450849718741747e-01 0 0
1.800000000000e+11 0 0 5.0000000000000000e-01 3.9163938347251765e-15 5.0000000000000000e-01 3.9163938347251765e-15 0 0
1.801000000000e+11 0 0 4.7552825814757993e-01 -1.5450849718746407e-01 4.7552825814757993e-01 -1.5450849718746407e-01 0 0
1.802000000000e+11 0 0 4.0450849718744991e-01 -2.9389262614626932e-01 4.0450849718744991e-01 -2.9389262614626932e-01 0 0
1.803000000000e+11 0 0 2.9389262614620887e-01 -4.0450849718749382e-01 2.9389262614620887e-01 -4.0450849718749382e-01 0 0
1.804000000000e+11 0 0 1.5450849718750112e-01 -4.7552825814756788e-01 1.5450849718750112e-01 -4.7552825814756788e-01 0 0
1.805000000000e+11 0 0 -2.1810164166599771e-14 -5.0000000000000000e-01 -2.1810164166599771e-14 -5.0000000000000000e-01 0 0
1.806000000000e+11 0 0 -1.5450849718748855e-01 -4.7552825814757199e-01 -1.5450849718748855e-01 -4.7552825814757199e-01 0 0
1.807000000000e+11 0 0 -2.9389262614624412e-01 -4.0450849718746823e-01 -2.9389262614624412e-01 -4.0450849718746823e-01 0 0
1.808000000000e+11 0 0 -4.0450849718747556e-01 -2.9389262614623402e-01 -4.0450849718747556e-01 -2.9389262614623402e-01 0 0
1.809000000000e+11 0 0 -4.7552825814757582e-01 -1.5450849718747664e-01 -4.7552825814757582e-01 -1.5450849718747664e-01 0 0
1.810000000000e+11 0 0 -5.0000000000000000e-01 -9.3066966928832962e-15 -5.0000000000000000e-01 -9.3066966928832962e-15 0 0
1.811000000000e+11 0 0 -4.7552825814756400e-01 1.5450849718751300e-01 -4.7552825814756400e-01 1.5450849718751300e-01 0 0
1.812000000000e+11 0 0 -4.0450849718748649e-01 2.9389262614621897e-01 -4.0450849718748649e-01 2.9389262614621897e-01 0 0
1.813000000000e+11 0 0 -2.9389262614625922e-01 4.0450849718745729e-01 -2.9389262614625922e-01 4.0450849718745729e-01 0 0
1.814000000000e+11 0 0 -1.5450849718745219e-01 4.7552825814758376e-01 -1.5450849718745219e-01 4.7552825814758376e-01 0 0
1.815000000000e+11 0 0 1.6419861308441652e-14 5.0000000000000000e-01 1.6419861308441652e-14 5.0000000000000000e-01 0 0
1.816000000000e+11 0 0 1.5450849718742934e-01 4.7552825814759120e-01 1.5450849718742934e-01 4.7552825814759120e-01 0 0
1.817000000000e+11 0 0 2.9389262614623979e-01 4.0450849718747139e-01 2.9389262614623979e-01 4.0450849718747139e-01 0 0
1.818000000000e+11 0 0 4.0450849718747239e-01 2.9389262614623840e-01 4.0450849718747239e-01 2.9389262614623840e-01 0 0
1.819000000000e+11 0 0 4.7552825814759175e-01 1.5450849718742771e-01 4.7552825814759175e-01 1.5450849718742771e-01 0 0
1.820000000000e+11 0 0 5.0000000000000000e-01 -4.2146419309766603e-14 5.0000000000000000e-01 -4.2146419309766603e-14 0 0
1.821000000000e+11 0 0 4.7552825814758326e-01 -1.5450849718745382e-01 4.7552825814758326e-01 -1.5450849718745382e-01 0 0
1.822000000000e+11 0 0 4.0450849718745624e-01 -2.9389262614626060e-01 4.0450849718745624e-01 -2.9389262614626060e-01 0 0
1.823000000000e+11 0 0 2.9389262614621758e-01 -4.0450849718748749e-01 2.9389262614621758e-01 -4.0450849718748749e-01 0 0
1.824000000000e+11 0 0 1.5450849718745729e-01 -4.7552825814758209e-01 1.5450849718745729e-01 -4.7552825814758209e-01 0 0
1.825000000000e+11 0 0 -1.1029558450283533e-14 -5.0000000000000000e-01 -1.1029558450283533e-14 -5.0000000000000000e-01 0 0
1.826000000000e+11 0 0 -1.5450849718747828e-01 -4.7552825814757532e-01 -1.5450849718747828e-01 -4.7552825814757532e-01 0 0
1.827000000000e+11 0 0 -2.9389262614623540e-01 -4.0450849718747456e-01 -2.9389262614623540e-01 -4.0450849718747456e-01 0 0
1.828000000000e+11 0 0 -4.0450849718750265e-01 -2.9389262614619677e-01 -4.0450849718750265e-01 -2.9389262614619677e-01 0 0
1.829000000000e+11 0 0 -4.7552825814757249e-01 -1.5450849718748691e-01 -4.7552825814757249e-01 -1.5450849718748691e-01 0 0
1.830000000000e+11 0 0 -5.0000000000000000e-01 -2.0087302409199534e-14 -5.0000000000000000e-01 -2.0087302409199534e-14 0 0
1.831000000000e+11 0 0 -4.7552825814756733e-01 1.5450849718750276e-01 -4.7552825814756733e-01 1.5450849718750276e-01 0 0
1.832000000000e+11 0 0 -4.0450849718745940e-01 2.9389262614625622e-01 -4.0450849718745940e-01 2.9389262614625622e-01 0 0
1.833000000000e+11 0 0 -2.9389262614626793e-01 4.0450849718745091e-01 -2.9389262614626793e-01 4.0450849718745091e-01 0 0
1.834000000000e+11 0 0 -1.5450849718746243e-01 4.7552825814758043e-01 -1.5450849718746243e-01 4.7552825814758043e-01 0 0
1.835000000000e+11 0 0 5.6392555921254138e-15 5.0000000000000000e-01 5.6392555921254138e-15 5.0000000000000000e-01 0 0
1.836000000000e+11 0 0 1.5450849718752721e-01 4.7552825814755939e-01 1.5450849718752721e-01 4.7552825814755939e-01 0 0
1.837000000000e+11 0 0 2.9389262614623107e-01 4.0450849718747772e-01 2.9389262614623107e-01 4.0450849718747772e-01 0 0
1.838000000000e+11 0 0 4.0450849718746607e-01 2.9389262614624712e-01 4.0450849718746607e-01 2.9389262614624712e-01 0 0
1.839000000000e+11 0 0 4.7552825814758842e-01 1.5450849718743798e-01 4.7552825814758842e-01 1.5450849718743798e-01 0 0
1.840000000000e+11 0 0 5.0000000000000000e-01 -3.1365813593450365e-14 5.0000000000000000e-01 -3.1365813593450365e-14 0 0
1.841000000000e+11 0 0 4.7552825814758659e-01 -1.5450849718744356e-01 4.7552825814758659e-01 -1.5450849718744356e-01 0 0
1.842000000000e+11 0 0 4.0450849718746262e-01 -2.9389262614625189e-01 4.0450849718746262e-01 -2.9389262614625189e-01 0 0
1.843000000000e+11 0 0 2.9389262614622630e-01 -4.0450849718748116e-01 2.9389262614622630e-01 -4.0450849718748116e-01 0 0
1.844000000000e+11 0 0 1.5450849718746756e-01 -4.7552825814757876e-01 1.5450849718746756e-01 -4.7552825814757876e-01 0 0
1.845000000000e+11 0 0 -2.4895273396729497e-16 -5.0000000000000000e-01 -2.4895273396729497e-16 -5.0000000000000000e-01 0 0
1.846000000000e+11 0 0 -1.5450849718746804e-01 -4.7552825814757865e-01 -1.5450849718746804e-01 -4.7552825814757865e-01 0 0
1.847000000000e+11 0 0 -2.9389262614622669e-01 -4.0450849718748089e-01 -2.9389262614622669e-01 -4.0450849718748089e-01 0 0
1.848000000000e+11 0 0 -4.0450849718749632e-01 -2.9389262614620548e-01 -4.0450849718749632e-01 -2.9389262614620548e-01 0 0
1.849000000000e+11 0 0 -4.7552825814758676e-01 -1.5450849718744308e-01 -4.7552825814758676e-01 -1.5450849718744308e-01 0 0
1.850000000000e+11 0 0 -5.0000000000000000e-01 -3.0867908125515769e-14 -5.0000000000000000e-01 -3.0867908125515769e-14 0 0
1.851000000000e+11 0 0 -4.7552825814757066e-01 1.5450849718749249e-01 -4.7552825814757066e-01 1.5450849718749249e-01 0 0
1.852000000000e+11 0 0 -4.0450849718746573e-01 2.9389262614624750e-01 -4.0450849718746573e-01 2.9389262614624750e-01 0 0
1.853000000000e+11 0 0 -2.9389262614623063e-01 4.0450849718747800e-01 -2.9389262614623063e-01 4.0450849718747800e-01 0 0
1.854000000000e+11 0 0 -1.5450849718747267e-01 4.7552825814757710e-01 -1.5450849718747267e-01 4.7552825814757710e-01 0 0
1.855000000000e+11 0 0 -5.1413501241908241e-15 5.0000000000000000e-01 -5.1413501241908241e-15 5.0000000000000000e-01 0 0
1.856000000000e+11 0 0 1.5450849718751697e-01 4.7552825814756272e-01 1.5450849718751697e-01 4.7552825814756272e-01 0 0
1.857000000000e+11 0 0 2.9389262614626832e-01 4.0450849718745063e-01 2.9389262614626832e-01 4.0450849718745063e-01 0 0
1.858000000000e+11 0 0 4.0450849718745974e-01 2.9389262614625583e-01 4.0450849718745974e-01 2.9389262614625583e-01 0 0
1.859000000000e+11 0 0 4.7552825814758509e-01 1.5450849718744822e-01 4.7552825814758509e-01 1.5450849718744822e-01 0 0
1.860000000000e+11 0 0 5.0000000000000000e-01 -2.0585207877134124e-14 5.0000000000000000e-01 -2.0585207877134124e-14 0 0
1.861000000000e+11 0 0 4.7552825814757232e-01 -1.5450849718748738e-01 4.7552825814757232e-01 -1.5450849718748738e-01 0 0
1.862000000000e+11 0 0 4.0450849718746895e-01 -2.9389262614624312e-01 4.0450849718746895e-01 -2.9389262614624312e-01 0 0
1.863000000000e+11 0 0 2.9389262614623501e-01 -4.0450849718747484e-01 2.9389262614623501e-01 -4.0450849718747484e-01 0 0
1.864000000000e+11 0 0 1.5450849718747781e-01 -4.7552825814757543e-01 1.5450849718747781e-01 -4.7552825814757543e-01 0 0
1.865000000000e+11 0 0 -4.6311765878459069e-14 -5.0000000000000000e-01 -4.6311765878459069e-14 -5.0000000000000000e-01 0 0
1.866000000000e+11 0 0 -1.5450849718745777e-01 -4.7552825814758198e-01 -1.5450849718745777e-01 -4.7552825814758198e-01 0 0
1.867000000000e+11 0 0 -2.9389262614621797e-01 -4.0450849718748721e-01 -2.9389262614621797e-01 -4.0450849718748721e-01 0 0
1.868000000000e+11 0 0 -4.0450849718748993e-01 -2.9389262614621420e-01 -4.0450849718748993e-01 -2.9389262614621420e-01 0 0
1.869000000000e+11 0 0 -4.7552825814758343e-01 -1.5450849718745335e-01 -4.7552825814758343e-01 -1.5450849718745335e-01 0 0
1.870000000000e+11 0 0 -5.0000000000000000e-01 -4.1648513841832013e-14 -5.0000000000000000e-01 -4.1648513841832013e-14 0 0
1.871000000000e+11 0 0 -4.7552825814757399e-01 1.5450849718748225e-01 -4.7552825814757399e-01 1.5450849718748225e-01 0 0
1.872000000000e+11 0 0 -4.0450849718747212e-01 2.9389262614623879e-01 -4.0450849718747212e-01 2.9389262614623879e-01 0 0
1.873000000000e+11 0 0 -2.9389262614623940e-01 4.0450849718747167e-01 -2.9389262614623940e-01 4.0450849718747167e-01 0 0
1.874000000000e+11 0 0 -1.5450849718748294e-01 4.7552825814757377e-01 -1.5450849718748294e-01 4.7552825814757377e-01 0 0
1.875000000000e+11 0 0 -1.5921955840507062e-14 5.0000000000000000e-01 -1.5921955840507062e-14 5.0000000000000000e-01 0 0
1.876000000000e+11 0 0 1.5450849718750670e-01 4.7552825814756605e-01 1.5450849718750670e-01 4.7552825814756605e-01 0 0
1.877000000000e+11 0 0 2.9389262614625961e-01 4.0450849718745696e-01 2.9389262614625961e-01 4.0450849718745696e-01 0 0
1.878000000000e+11 0 0 4.0450849718748677e-01 2.9389262614621858e-01 4.0450849718748677e-01 2.9389262614621858e-01 0 0
1.879000000000e+11 0 0 4.7552825814758176e-01 1.5450849718745846e-01 4.7552825814758176e-01 1.5450849718745846e-01 0 0
1.880000000000e+11 0 0 5.0000000000000000e-01 -9.8046021608178859e-15 5.0000000000000000e-01 -9.8046021608178859e-15 0 0
1.881000000000e+11 0 0 4.7552825814757566e-01 -1.5450849718747711e-01 4.7552825814757566e-01 -1.5450849718747711e-01 0 0
1.882000000000e+11 0 0 4.0450849718744186e-01 -2.9389262614628042e-01 4.0450849718744186e-01 -2.9389262614628042e-01 0 0
1.883000000000e+11 0 0 2.9389262614624373e-01 -4.0450849718746851e-01 2.9389262614624373e-01 -4.0450849718746851e-01 0 0
1.884000000000e+11 0 0 1.5450849718748808e-01 -4.7552825814757210e-01 1.5450849718748808e-01 -4.7552825814757210e-01 0 0
1.885000000000e+11 0 0 -3.5531160162142831e-14 -5.0000000000000000e-01 -3.5531160162142831e-14 -5.0000000000000000e-01 0 0
1.886000000000e+11 0 0 -1.5450849718750159e-01 -4.7552825814756772e-01 -1.5450849718750159e-01 -4.7552825814756772e-01 0 0
1.887000000000e+11 0 0 -2.9389262614620926e-01 -4.0450849718749354e-01 -2.9389262614620926e-01 -4.0450849718749354e-01 0 0
1.888000000000e+11 0 0 -4.0450849718748361e-01 -2.9389262614622291e-01 -4.0450849718748361e-01 -2.9389262614622291e-01 0 0
1.889000000000e+11 0 0 -4.7552825814758010e-01 -1.5450849718746359e-01 -4.7552825814758010e-01 -1.5450849718746359e-01 0 0
1.890000000000e+11 0 0 -5.0000000000000000e-01 4.4142993026597669e-15 -5.0000000000000000e-01 4.4142993026597669e-15 0 0
1.891000000000e+11 0 0 -4.7552825814757732e-01 1.5450849718747200e-01 -4.7552825814757732e-01 1.5450849718747200e-01 0 0
1.892000000000e+11 0 0 -4.0450849718747844e-01 2.9389262614623007e-01 -4.0450849718747844e-01 2.9389262614623007e-01 0 0
1.893000000000e+11 0 0 -2.9389262614620210e-01 4.0450849718749876e-01 -2.9389262614620210e-01 4.0450849718749876e-01 0 0
1.894000000000e+11 0 0 -1.5450849718743911e-01 4.7552825814758803e-01 -1.5450849718743911e-01 4.7552825814758803e-01 0 0
1.895000000000e+11 0 0 -2.6702561556823300e-14 5.0000000000000000e-01 -2.6702561556823300e-14 5.0000000000000000e-01 0 0
1.896000000000e+11 0 0 1.5450849718749646e-01 4.7552825814756938e-01 1.5450849718749646e-01 4.7552825814756938e-01 0 0
1.897000000000e+11 0 0 2.9389262614625089e-01 4.0450849718746329e-01 2.9389262614625089e-01 4.0450849718746329e-01 0 0
1.898000000000e+11 0 0 4.0450849718748044e-01 2.9389262614622730e-01 4.0450849718748044e-01 2.9389262614622730e-01 0 0
1.899000000000e+11 0 0 4.7552825814757843e-01 1.5450849718746873e-01 4.7552825814757843e-01 1.5450849718746873e-01 0 0
1.900000000000e+11 0 0 5.0000000000000000e-01 9.7600355549835246e-16 5.0000000000000000e-01 9.7600355549835246e-16 0 0
1.901000000000e+11 0 0 4.7552825814757899e-01 -1.5450849718746687e-01 4.7552825814757899e-01 -1.5450849718746687e-01 0 0
1.902000000000e+11 0 0 4.0450849718744819e-01 -2.9389262614627171e-01 4.0450849718744819e-01 -2.9389262614627171e-01 0 0
1.903000000000e+11 0 0 2.9389262614625244e-01 -4.0450849718746218e-01 2.9389262614625244e-01 -4.0450849718746218e-01 0 0
1.904000000000e+11 0 0 1.5450849718749832e-01 -4.7552825814756877e-01 1.5450849718749832e-01 -4.7552825814756877e-01 0 0
1.905000000000e+11 0 0 -2.4750554445826596e-14 -5.0000000000000000e-01 -2.4750554445826596e-14 -5.0000000000000000e-01 0 0
1.906000000000e+11 0 0 -1.5450849718749132e-01 -4.7552825814757105e-01 -1.5450849718749132e-01 -4.7552825814757105e-01 0 0
1.907000000000e+11 0 0 -2.9389262614620054e-01 -4.0450849718749987e-01 -2.9389262614620054e-01 -4.0450849718749987e-01 0 0
1.908000000000e+11 0 0 -4.0450849718747728e-01 -2.9389262614623163e-01 -4.0450849718747728e-01 -2.9389262614623163e-01 0 0
1.909000000000e+11 0 0 -4.7552825814757677e-01 -1.5450849718747384e-01 -4.7552825814757677e-01 -1.5450849718747384e-01 0 0
1.910000000000e+11 0 0 -5.0000000000000000e-01 -6.3663064136564718e-15 -5.0000000000000000e-01 -6.3663064136564718e-15 0 0
1.911000000000e+11 0 0 -4.7552825814756311e-01 1.5450849718751580e-01 -4.7552825814756311e-01 1.5450849718751580e-01 0 0
1.912000000000e+11 0 0 -4.0450849718748477e-01 2.9389262614622136e-01 -4.0450849718748477e-01 2.9389262614622136e-01 0 0
1.913000000000e+11 0 0 -2.9389262614621081e-01 4.0450849718749243e-01 -2.9389262614621081e-01 4.0450849718749243e-01 0 0
1.914000000000e+11 0 0 -1.5450849718744938e-01 4.7552825814758470e-01 -1.5450849718744938e-01 4.7552825814758470e-01 0 0
1.915000000000e+11 0 0 1.9360251587668477e-14 5.0000000000000000e-01 1.9360251587668477e-14 5.0000000000000000e-01 0 0
1.916000000000e+11 0 0 1.5450849718748622e-01 4.7552825814757271e-01 1.5450849718748622e-01 4.7552825814757271e-01 0 0
1.917000000000e+11 0 0 2.9389262614624218e-01 4.0450849718746967e-01 2.9389262614624218e-01 4.0450849718746967e-01 0 0
1.918000000000e+11 0 0 4.0450849718747411e-01 2.9389262614623601e-01 4.0450849718747411e-01 2.9389262614623601e-01 0 0
1.919000000000e+11 0 0 4.7552825814759264e-01 1.5450849718742490e-01 4.7552825814759264e-01 1.5450849718742490e-01 0 0
1.920000000000e+11 0 0 5.0000000000000000e-01 1.1756609271814590e-14 5.0000000000000000e-01 1.1756609271814590e-14 0 0
1.921000000000e+11 0 0 4.7552825814758232e-01 -1.5450849718745660e-01 4.7552825814758232e-01 -1.5450849718745660e-01 0 0
1.922000000000e+11 0 0 4.0450849718745452e-01 -2.9389262614626299e-01 4.0450849718745452e-01 -2.9389262614626299e-01 0 0
1.923000000000e+11 0 0 2.9389262614621520e-01 -4.0450849718748921e-01 2.9389262614621520e-01 -4.0450849718748921e-01 0 0
1.924000000000e+11 0 0 1.5450849718750856e-01 -4.7552825814756544e-01 1.5450849718750856e-01 -4.7552825814756544e-01 0 0
1.925000000000e+11 0 0 -1.3969948729510358e-14 -5.0000000000000000e-01 -1.3969948729510358e-14 -5.0000000000000000e-01 0 0
1.926000000000e+11 0 0 -1.5450849718748108e-01 -4.7552825814757438e-01 -1.5450849718748108e-01 -4.7552825814757438e-01 0 0
1.927000000000e+11 0 0 -2.9389262614623779e-01 -4.0450849718747284e-01 -2.9389262614623779e-01 -4.0450849718747284e-01 0 0
1.928000000000e+11 0 0 -4.0450849718747095e-01 -2.9389262614624034e-01 -4.0450849718747095e-01 -2.9389262614624034e-01 0 0
1.929000000000e+11 0 0 -4.7552825814757343e-01 -1.5450849718748411e-01 -4.7552825814757343e-01 -1.5450849718748411e-01 0 0
1.930000000000e+11 0 0 -5.0000000000000000e-01 -1.7146912129972709e-14 -5.0000000000000000e-01 -1.7146912129972709e-14 0 0
1.931000000000e+11 0 0 -4.7552825814756644e-01 1.5450849718750553e-01 -4.7552825814756644e-01 1.5450849718750553e-01 0 0
1.932000000000e+11 0 0 -4.0450849718749110e-01 2.9389262614621264e-01 -4.0450849718749110e-01 2.9389262614621264e-01 0 0
1.933000000000e+11 0 0 -2.9389262614621953e-01 4.0450849718748605e-01 -2.9389262614621953e-01 4.0450849718748605e-01 0 0
1.934000000000e+11 0 0 -1.5450849718745963e-01 4.7552825814758137e-01 -1.5450849718745963e-01 4.7552825814758137e-01 0 0
1.935000000000e+11 0 0 8.5796458713522390e-15 5.0000000000000000e-01 8.5796458713522390e-15 5.0000000000000000e-01 0 0
1.936000000000e+11 0 0 1.5450849718747595e-01 4.7552825814757604e-01 1.5450849718747595e-01 4.7552825814757604e-01 0 0
1.937000000000e+11 0 0 2.9389262614623346e-01 4.0450849718747600e-01 2.9389262614623346e-01 4.0450849718747600e-01 0 0
1.938000000000e+11 0 0 4.0450849718746779e-01 2.9389262614624473e-01 4.0450849718746779e-01 2.9389262614624473e-01 0 0
1.939000000000e+11 0 0 4.7552825814758931e-01 1.5450849718743517e-01 4.7552825814758931e-01 1.5450849718743517e-01 0 0
1.940000000000e+11 0 0 5.0000000000000000e-01 -3.4306203872677184e-14 5.0000000000000000e-01 -3.4306203872677184e-14 0 0
1.941000000000e+11 0 0 4.7552825814758565e-01 -1.5450849718744636e-01 4.7552825814758565e-01 -1.5450849718744636e-01 0 0
1.942000000000e+11 0 0 4.0450849718746085e-01 -2.9389262614625422e-01 4.0450849718746085e-01 -2.9389262614625422e-01 0 0
1.943000000000e+11 0 0 2.9389262614622391e-01 -4.0450849718748288e-01 2.9389262614622391e-01 -4.0450849718748288e-01 0 0
1.944000000000e+11 0 0 1.5450849718746476e-01 -4.7552825814757971e-01 1.5450849718746476e-01 -4.7552825814757971e-01 0 0
1.945000000000e+11 0 0 -3.1893430131941192e-15 -5.0000000000000000e-01 -3.1893430131941192e-15 -5.0000000000000000e-01 0 0
1.946000000000e+11 0 0 -1.5450849718747084e-01 -4.7552825814757771e-01 -1.5450849718747084e-01 -4.7552825814757771e-01 0 0
1.947000000000e+11 0 0 -2.9389262614622907e-01 -4.0450849718747917e-01 -2.9389262614622907e-01 -4.0450849718747917e-01 0 0
1.948000000000e+11 0 0 -4.0450849718749804e-01 -2.9389262614620310e-01 -4.0450849718749804e-01 -2.9389262614620310e-01 0 0
1.949000000000e+11 0 0 -4.7552825814757010e-01 -1.5450849718749435e-01 -4.7552825814757010e-01 -1.5450849718749435e-01 0 0
1.950000000000e+11 0 0 -5.0000000000000000e-01 -2.7927517846288947e-14 -5.0000000000000000e-01 -2.7927517846288947e-14 0 0
1.951000000000e+11 0 0 -4.7552825814756977e-01 1.5450849718749529e-01 -4.7552825814756977e-01 1.5450849718749529e-01 0 0
1.952000000000e+11 0 0 -4.0450849718746401e-01 2.9389262614624989e-01 -4.0450849718746401e-01 2.9389262614624989e-01 0 0
1.953000000000e+11 0 0 -2.9389262614622830e-01 4.0450849718747972e-01 -2.9389262614622830e-01 4.0450849718747972e-01 0 0
1.954000000000e+11 0 0 -1.5450849718746990e-01 4.7552825814757804e-01 -1.5450849718746990e-01 4.7552825814757804e-01 0 0
1.955000000000e+11 0 0 -2.2009598449639997e-15 5.0000000000000000e-01 -2.2009598449639997e-15 5.0000000000000000e-01 0 0
1.956000000000e+11 0 0 1.5450849718751977e-01 4.7552825814756183e-01 1.5450849718751977e-01 4.7552825814756183e-01 0 0
1.957000000000e+11 0 0 2.9389262614622469e-01 4.0450849718748233e-01 2.9389262614622469e-01 4.0450849718748233e-01 0 0
1.958000000000e+11 0 0 4.0450849718746146e-01 2.9389262614625344e-01 4.0450849718746146e-01 2.9389262614625344e-01 0 0
1.959000000000e+11 0 0 4.7552825814758598e-01 1.5450849718744541e-01 4.7552825814758598e-01 1.5450849718744541e-01 0 0
1.960000000000e+11 0 0 5.0000000000000000e-01 -2.3525598156360949e-14 5.0000000000000000e-01 -2.3525598156360949e-14 0 0
1.961000000000e+11 0 0 4.7552825814758903e-01 -1.5450849718743612e-01 4.7552825814758903e-01 -1.5450849718743612e-01 0 0
1.962000000000e+11 0 0 4.0450849718746718e-01 -2.9389262614624551e-01 4.0450849718746718e-01 -2.9389262614624551e-01 0 0
1.963000000000e+11 0 0 2.9389262614623263e-01 -4.0450849718747656e-01 2.9389262614623263e-01 -4.0450849718747656e-01 0 0
1.964000000000e+11 0 0 1.5450849718747500e-01 -4.7552825814757638e-01 1.5450849718747500e-01 -4.7552825814757638e-01 0 0
1.965000000000e+11 0 0 7.5912627031221195e-15 -5.0000000000000000e-01 7.5912627031221195e-15 -5.0000000000000000e-01 0 0
1.966000000000e+11 0 0 -1.5450849718746057e-01 -4.7552825814758104e-01 -1.5450849718746057e-01 -4.7552825814758104e-01 0 0
1.967000000000e+11 0 0 -2.9389262614622036e-01 -4.0450849718748549e-01 -2.9389262614622036e-01 -4.0450849718748549e-01 0 0
1.968000000000e+11 0 0 -4.0450849718749171e-01 -2.9389262614621181e-01 -4.0450849718749171e-01 -2.9389262614621181e-01 0 0
1.969000000000e+11 0 0 -4.7552825814758432e-01 -1.5450849718745055e-01 -4.7552825814758432e-01 -1.5450849718745055e-01 0 0
1.970000000000e+11 0 0 -5.0000000000000000e-01 1.8135295298202830e-14 -5.0000000000000000e-01 1.8135295298202830e-14 0 0
1.971000000000e+11 0 0 -4.7552825814757310e-01 1.5450849718748505e-01 -4.7552825814757310e-01 1.5450849718748505e-01 0 0
1.972000000000e+11 0 0 -4.0450849718747039e-01 2.9389262614624118e-01 -4.0450849718747039e-01 2.9389262614624118e-01 0 0
1.973000000000e+11 0 0 -2.9389262614619099e-01 4.0450849718750681e-01 -2.9389262614619099e-01 4.0450849718750681e-01 0 0
1.974000000000e+11 0 0 -1.5450849718748014e-01 4.7552825814757471e-01 -1.5450849718748014e-01 4.7552825814757471e-01 0 0
1.975000000000e+11 0 0 -1.2981565561280238e-14 5.0000000000000000e-01 -1.2981565561280238e-14 5.0000000000000000e-01 0 0
1.976000000000e+11 0 0 1.5450849718750950e-01 4.7552825814756516e-01 1.5450849718750950e-01 4.7552825814756516e-01 0 0
1.977000000000e+11 0 0 2.9389262614626199e-01 4.0450849718745524e-01 2.9389262614626199e-01 4.0450849718745524e-01 0 0
1.978000000000e+11 0 0 4.0450849718745513e-01 2.9389262614626216e-01 4.0450849718745513e-01 2.9389262614626216e-01 0 0
1.979000000000e+11 0 0 4.7552825814758265e-01 1.5450849718745568e-01 4.7552825814758265e-01 1.5450849718745568e-01 0 0
1.980000000000e+11 0 0 5.0000000000000000e-01 -1.2744992440044709e-14 5.0000000000000000e-01 -1.2744992440044709e-14 0 0
1.981000000000e+11 0 0 4.7552825814757477e-01 -1.5450849718747992e-01 4.7552825814757477e-01 -1.5450849718747992e-01 0 0
1.982000000000e+11 0 0 4.0450849718747356e-01 -2.9389262614623679e-01 4.0450849718747356e-01 -2.9389262614623679e-01 0 0
1.983000000000e+11 0 0 2.9389262614624134e-01 -4.0450849718747023e-01 2.9389262614624134e-01 -4.0450849718747023e-01 0 0
1.984000000000e+11 0 0 1.5450849718748527e-01 -4.7552825814757305e-01 1.5450849718748527e-01 -4.7552825814757305e-01 0 0
1.985000000000e+11 0 0 -3.8471550441369656e-14 -5.0000000000000000e-01 -3.8471550441369656e-14 -5.0000000000000000e-01 0 0
1.986000000000e+11 0 0 -1.5450849718745033e-01 -4.7552825814758437e-01 -1.5450849718745033e-01 -4.7552825814758437e-01 0 0
1.987000000000e+11 0 0 -2.9389262614621164e-01 -4.0450849718749182e-01 -2.9389262614621164e-01 -4.0450849718749182e-01 0 0
1.988000000000e+11 0 0 -4.0450849718748533e-01 -2.9389262614622053e-01 -4.0450849718748533e-01 -2.9389262614622053e-01 0 0
1.989000000000e+11 0 0 -4.7552825814758098e-01 -1.5450849718746079e-01 -4.7552825814758098e-01 -1.5450849718746079e-01 0 0
1.990000000000e+11 0 0 -5.0000000000000000e-01 7.3546895818865905e-15 -5.0000000000000000e-01 7.3546895818865905e-15 0 0
1.991000000000e+11 0 0 -4.7552825814757643e-01 1.5450849718747478e-01 -4.7552825814757643e-01 1.5450849718747478e-01 0 0
1.992000000000e+11 0 0 -4.0450849718747672e-01 2.9389262614623246e-01 -4.0450849718747672e-01 2.9389262614623246e-01 0 0
1.993000000000e+11 0 0 -2.9389262614619971e-01 4.0450849718750048e-01 -2.9389262614619971e-01 4.0450849718750048e-01 0 0
1.994000000000e+11 0 0 -1.5450849718749038e-01 4.7552825814757138e-01 -1.5450849718749038e-01 4.7552825814757138e-01 0 0
1.995000000000e+11 0 0 -2.3762171277596475e-14 5.0000000000000000e-01 -2.3762171277596475e-14 5.0000000000000000e-01 0 0
1.996000000000e+11 0 0 1.5450849718749926e-01 4.7552825814756849e-01 1.5450849718749926e-01 4.7552825814756849e-01 0 0
1.997000000000e+11 0 0 2.9389262614625328e-01 4.0450849718746157e-01 2.9389262614625328e-01 4.0450849718746157e-01 0 0
1.998000000000e+11 0 0 4.0450849718748216e-01 2.9389262614622491e-01 4.0450849718748216e-01 2.9389262614622491e-01 0 0
1.999000000000e+11 0 0 4.7552825814757932e-01 1.5450849718746593e-01 4.7552825814757932e-01 1.5450849718746593e-01 0 0
2.000000000000e+11 0 0 5.0000000000000000e-01 -1.9643867237284719e-15 5.0000000000000000e-01 -1.9643867237284719e-15 0 0
2.001000000000e+11 0 0 4.7552825814757810e-01 -1.5450849718746967e-01 4.7552825814757810e-01 -1.5450849718746967e-01 0 0
2.002000000000e+11 0 0 4.0450849718744647e-01 -2.9389262614627409e-01 4.0450849718744647e-01 -2.9389262614627409e-01 0 0
2.003000000000e+11 0 0 2.9389262614625006e-01 -4.0450849718746390e-01 2.9389262614625006e-01 -4.0450849718746390e-01 0 0
2.004000000000e+11 0 0 1.5450849718749551e-01 -4.7552825814756972e-01 1.5450849718749551e-01 -4.7552825814756972e-01 0 0
2.005000000000e+11 0 0 -2.7690944725053421e-14 -5.0000000000000000e-01 -2.7690944725053421e-14 -5.0000000000000000e-01 0 0
2.006000000000e+11 0 0 -1.5450849718749413e-01 -4.7552825814757016e-01 -1.5450849718749413e-01 -4.7552825814757016e-01 0 0
2.007000000000e+11 0 0 -2.9389262614620293e-01 -4.0450849718749815e-01 -2.9389262614620293e-01 -4.0450849718749815e-01 0 0
2.008000000000e+11 0 0 -4.0450849718747900e-01 -2.9389262614622924e-01 -4.0450849718747900e-01 -2.9389262614622924e-01 0 0
2.009000000000e+11 0 0 -4.7552825814757765e-01 -1.5450849718747106e-01 -4.7552825814757765e-01 -1.5450849718747106e-01 0 0
2.010000000000e+11 0 0 -5.0000000000000000e-01 5.3417502726378366e-14 -5.0000000000000000e-01 5.3417502726378366e-14 0 0
2.011000000000e+11 0 0 -4.7552825814757976e-01 1.5450849718746454e-01 -4.7552825814757976e-01 1.5450849718746454e-01 0 0
2.012000000000e+11 0 0 -4.0450849718748305e-01 2.9389262614622375e-01 -4.0450849718748305e-01 2.9389262614622375e-01 0 0
2.013000000000e+11 0 0 -2.9389262614620848e-01 4.0450849718749415e-01 -2.9389262614620848e-01 4.0450849718749415e-01 0 0
2.014000000000e+11 0 0 -1.5450849718744658e-01 4.7552825814758559e-01 -1.5450849718744658e-01 4.7552825814758559e-01 0 0
2.015000000000e+11 0 0 -3.4542776993912716e-14 5.0000000000000000e-01 -3.4542776993912716e-14 5.0000000000000000e-01 0 0
2.016000000000e+11 0 0 1.5450849718748899e-01 4.7552825814757183e-01 1.5450849718748899e-01 4.7552825814757183e-01 0 0
2.017000000000e+11 0 0 2.9389262614624456e-01 4.0450849718746790e-01 2.9389262614624456e-01 4.0450849718746790e-01 0 0
2.018000000000e+11 0 0 4.0450849718747584e-01 2.9389262614623363e-01 4.0450849718747584e-01 2.9389262614623363e-01 0 0
2.019000000000e+11 0 0 4.7552825814757599e-01 1.5450849718747617e-01 4.7552825814757599e-01 1.5450849718747617e-01 0 0
2.020000000000e+11 0 0 5.0000000000000000e-01 8.8162189925877664e-15 5.0000000000000000e-01 8.8162189925877664e-15 0 0
2.021000000000e+11 0 0 4.7552825814758143e-01 -1.5450849718745940e-01 4.7552825814758143e-01 -1.5450849718745940e-01 0 0
2.022000000000e+11 0 0 4.0450849718745280e-01 -2.9389262614626532e-01 4.0450849718745280e-01 -2.9389262614626532e-01 0 0
2.023000000000e+11 0 0 2.9389262614625877e-01 -4.0450849718745757e-01 2.9389262614625877e-01 -4.0450849718745757e-01 0 0
2.024000000000e+11 0 0 1.5450849718750578e-01 -4.7552825814756639e-01 1.5450849718750578e-01 -4.7552825814756639e-01 0 0
2.025000000000e+11 0 0 -1.6910339008737183e-14 -5.0000000000000000e-01 -1.6910339008737183e-14 -5.0000000000000000e-01 0 0
2.026000000000e+11 0 0 -1.5450849718748388e-01 -4.7552825814757349e-01 -1.5450849718748388e-01 -4.7552825814757349e-01 0 0
2.027000000000e+11 0 0 -2.9389262614628614e-01 -4.0450849718743770e-01 -2.9389262614628614e-01 -4.0450849718743770e-01 0 0
2.028000000000e+11 0 0 -4.0450849718747267e-01 -2.9389262614623801e-01 -4.0450849718747267e-01 -2.9389262614623801e-01 0 0
2.029000000000e+11 0 0 -4.7552825814757432e-01 -1.5450849718748130e-01 -4.7552825814757432e-01 -1.5450849718748130e-01 0 0
2.030000000000e+11 0 0 -5.0000000000000000e-01 4.2636897010062128e-14 -5.0000000000000000e-01 4.2636897010062128e-14 0 0
2.031000000000e+11 0 0 -4.7552825814756555e-01 1.5450849718750834e-01 -4.7552825814756555e-01 1.5450849718750834e-01 0 0
2.032000000000e+11 0 0 -4.0450849718748938e-01 2.9389262614621503e-01 -4.0450849718748938e-01 2.9389262614621503e-01 0 0
2.033000000000e+11 0 0 -2.9389262614621720e-01 4.0450849718748777e-01 -2.9389262614621720e-01 4.0450849718748777e-01 0 0
2.034000000000e+11 0 0 -1.5450849718745685e-01 4.7552825814758226e-01 -1.5450849718745685e-01 4.7552825814758226e-01 0 0
2.035000000000e+11 0 0 1.1520036150579063e-14 5.0000000000000000e-01 1.1520036150579063e-14 5.0000000000000000e-01 0 0
2.036000000000e+11 0 0 1.5450849718747875e-01 4.7552825814757516e-01 1.5450849718747875e-01 4.7552825814757516e-01 0 0
2.037000000000e+11 0 0 2.9389262614623579e-01 4.0450849718747428e-01 2.9389262614623579e-01 4.0450849718747428e-01 0 0
2.038000000000e+11 0 0 4.0450849718746951e-01 2.9389262614624234e-01 4.0450849718746951e-01 2.9389262614624234e-01 0 0
2.039000000000e+11 0 0 4.7552825814759020e-01 1.5450849718743237e-01 4.7552825814759020e-01 1.5450849718743237e-01 0 0
2.040000000000e+11 0 0 5.0000000000000000e-01 1.9596824708904003e-14 5.0000000000000000e-01 1.9596824708904003e-14 0 0
2.041000000000e+11 0 0 4.7552825814758476e-01 -1.5450849718744916e-01 4.7552825814758476e-01 -1.5450849718744916e-01 0 0
2.042000000000e+11 0 0 4.0450849718745913e-01 -2.9389262614625661e-01 4.0450849718745913e-01 -2.9389262614625661e-01 0 0
2.043000000000e+11 0 0 2.9389262614622153e-01 -4.0450849718748461e-01 2.9389262614622153e-01 -4.0450849718748461e-01 0 0
2.044000000000e+11 0 0 1.5450849718751603e-01 -4.7552825814756305e-01 1.5450849718751603e-01 -4.7552825814756305e-01 0 0
2.045000000000e+11 0 0 -6.1297332924209436e-15 -5.0000000000000000e-01 -6.1297332924209436e-15 -5.0000000000000000e-01 0 0
2.046000000000e+11 0 0 -1.5450849718747361e-01 -4.7552825814757682e-01 -1.5450849718747361e-01 -4.7552825814757682e-01 0 0
2.047000000000e+11 0 0 -2.9389262614627742e-01 -4.0450849718744403e-01 -2.9389262614627742e-01 -4.0450849718744403e-01 0 0
2.048000000000e+11 0 0 -4.0450849718746634e-01 -2.9389262614624673e-01 -4.0450849718746634e-01 -2.9389262614624673e-01 0 0
2.049000000000e+11 0 0 -4.7552825814757099e-01 -1.5450849718749154e-01 -4.7552825814757099e-01 -1.5450849718749154e-01 0 0
2.050000000000e+11 0 0 -5.0000000000000000e-01 3.1856291293745890e-14 -5.0000000000000000e-01 3.1856291293745890e-14 0 0
2.051000000000e+11 0 0 -4.7552825814756888e-01 1.5450849718749810e-01 -4.7552825814756888e-01 1.5450849718749810e-01 0 0
2.052000000000e+11 0 0 -4.0450849718749571e-01 2.9389262614620626e-01 -4.0450849718749571e-01 2.9389262614620626e-01 0 0
2.053000000000e+11 0 0 -2.9389262614622591e-01 4.0450849718748144e-01 -2.9389262614622591e-01 4.0450849718748144e-01 0 0
2.054000000000e+11 0 0 -1.5450849718746709e-01 4.7552825814757893e-01 -1.5450849718746709e-01 4.7552825814757893e-01 0 0
2.055000000000e+11 0 0 7.3943043426282456e-16 5.0000000000000000e-01 7.3943043426282456e-16 5.0000000000000000e-01 0 0
2.056000000000e+11 0 0 1.5450849718752255e-01 4.7552825814756089e-01 1.5450849718752255e-01 4.7552825814756089e-01 0 0
2.057000000000e+11 0 0 2.9389262614622708e-01 4.0450849718748061e-01 2.9389262614622708e-01 4.0450849718748061e-01 0 0
2.058000000000e+11 0 0 4.0450849718746318e-01 2.9389262614625106e-01 4.0450849718746318e-01 2.9389262614625106e-01 0 0
2.059000000000e+11 0 0 4.7552825814758687e-01 1.5450849718744261e-01 4.7552825814758687e-01 1.5450849718744261e-01 0 0
2.060000000000e+11 0 0 5.0000000000000000e-01 -2.6465988435587771e-14 5.0000000000000000e-01 -2.6465988435587771e-14 0 0
2.061000000000e+11 0 0 4.7552825814758809e-01 -1.5450849718743889e-01 4.7552825814758809e-01 -1.5450849718743889e-01 0 0
2.062000000000e+11 0 0 4.0450849718746545e-01 -2.9389262614624789e-01 4.0450849718746545e-01 -2.9389262614624789e-01 0 0
2.063000000000e+11 0 0 2.9389262614623024e-01 -4.0450849718747828e-01 2.9389262614623024e-01 -4.0450849718747828e-01 0 0
2.064000000000e+11 0 0 1.5450849718741816e-01 -4.7552825814759486e-01 1.5450849718741816e-01 -4.7552825814759486e-01 0 0
2.065000000000e+11 0 0 4.6508724238952943e-15 -5.0000000000000000e-01 4.6508724238952943e-15 -5.0000000000000000e-01 0 0
2.066000000000e+11 0 0 -1.5450849718746337e-01 -4.7552825814758015e-01 -1.5450849718746337e-01 -4.7552825814758015e-01 0 0
2.067000000000e+11 0 0 -2.9389262614626871e-01 -4.0450849718745036e-01 -2.9389262614626871e-01 -4.0450849718745036e-01 0 0
2.068000000000e+11 0 0 -4.0450849718749343e-01 -2.9389262614620942e-01 -4.0450849718749343e-01 -2.9389262614620942e-01 0 0
2.069000000000e+11 0 0 -4.7552825814756766e-01 -1.5450849718750181e-01 -4.7552825814756766e-01 -1.5450849718750181e-01 0 0
2.070000000000e+11 0 0 -5.0000000000000000e-01 2.1075685577429652e-14 -5.0000000000000000e-01 2.1075685577429652e-14 0 0
2.071000000000e+11 0 0 -4.7552825814757221e-01 1.5450849718748783e-01 -4.7552825814757221e-01 1.5450849718748783e-01 0 0
2.072000000000e+11 0 0 -4.0450849718746862e-01 2.9389262614624356e-01 -4.0450849718746862e-01 2.9389262614624356e-01 0 0
2.073000000000e+11 0 0 -2.9389262614623463e-01 4.0450849718747511e-01 -2.9389262614623463e-01 4.0450849718747511e-01 0 0
2.074000000000e+11 0 0 -1.5450849718747733e-01 4.7552825814757560e-01 -1.5450849718747733e-01 4.7552825814757560e-01 0 0
2.075000000000e+11 0 0 -1.0041175282053413e-14 5.0000000000000000e-01 -1.0041175282053413e-14 5.0000000000000000e-01 0 0
2.076000000000e+11 0 0 1.5450849718751231e-01 4.7552825814756422e-01 1.5450849718751231e-01 4.7552825814756422e-01 0 0
2.077000000000e+11 0 0 2.9389262614621836e-01 4.0450849718748694e-01 2.9389262614621836e-01 4.0450849718748694e-01 0 0
2.078000000000e+11 0 0 4.0450849718745685e-01 2.9389262614625977e-01 4.0450849718745685e-01 2.9389262614625977e-01 0 0
2.079000000000e+11 0 0 4.7552825814758354e-01 1.5450849718745288e-01 4.7552825814758354e-01 1.5450849718745288e-01 0 0
2.080000000000e+11 0 0 5.0000000000000000e-01 -1.5685382719271533e-14 5.0000000000000000e-01 -1.5685382719271533e-14 0 0
2.081000000000e+11 0 0 4.7552825814759142e-01 -1.5450849718742865e-01 4.7552825814759142e-01 -1.5450849718742865e-01 0 0
2.082000000000e+11 0 0 4.0450849718747178e-01 -2.9389262614623918e-01 4.0450849718747178e-01 -2.9389262614623918e-01 0 0
2.083000000000e+11 0 0 2.9389262614623896e-01 -4.0450849718747195e-01 2.9389262614623896e-01 -4.0450849718747195e-01 0 0
2.084000000000e+11 0 0 1.5450849718742840e-01 -4.7552825814759153e-01 1.5450849718742840e-01 -4.7552825814759153e-01 0 0
2.085000000000e+11 0 0 -4.1411940720596481e-14 -5.0000000000000000e-01 -4.1411940720596481e-14 -5.0000000000000000e-01 0 0
2.086000000000e+11 0 0 -1.5450849718745313e-01 -4.7552825814758348e-01 -1.5450849718745313e-01 -4.7552825814758348e-01 0 0
2.087000000000e+11 0 0 -2.9389262614625999e-01 -4.0450849718745668e-01 -2.9389262614625999e-01 -4.0450849718745668e-01 0 0
2.088000000000e+11 0 0 -4.0450849718748710e-01 -2.9389262614621814e-01 -4.0450849718748710e-01 -2.9389262614621814e-01 0 0
2.089000000000e+11 0 0 -4.7552825814758187e-01 -1.5450849718745799e-01 -4.7552825814758187e-01 -1.5450849718745799e-01 0 0
2.090000000000e+11 0 0 -5.0000000000000000e-01 1.0295079861113416e-14 -5.0000000000000000e-01 1.0295079861113416e-14 0 0
2.091000000000e+11 0 0 -4.7552825814757554e-01 1.5450849718747758e-01 -4.7552825814757554e-01 1.5450849718747758e-01 0 0
2.092000000000e+11 0 0 -4.0450849718747500e-01 2.9389262614623485e-01 -4.0450849718747500e-01 2.9389262614623485e-01 0 0
2.093000000000e+11 0 0 -2.9389262614619738e-01 4.0450849718750220e-01 -2.9389262614619738e-01 4.0450849718750220e-01 0 0
2.094000000000e+11 0 0 -1.5450849718748760e-01 4.7552825814757227e-01 -1.5450849718748760e-01 4.7552825814757227e-01 0 0
2.095000000000e+11 0 0 -2.0821780998369653e-14 5.0000000000000000e-01 -2.0821780998369653e-14 5.0000000000000000e-01 0 0
2.096000000000e+11 0 0 1.5450849718750206e-01 4.7552825814756755e-01 1.5450849718750206e-01 4.7552825814756755e-01 0 0
2.097000000000e+11 0 0 2.9389262614625566e-01 4.0450849718745985e-01 2.9389262614625566e-01 4.0450849718745985e-01 0 0
2.098000000000e+11 0 0 4.0450849718745052e-01 2.9389262614626849e-01 4.0450849718745052e-01 2.9389262614626849e-01 0 0
2.099000000000e+11 0 0 4.7552825814758021e-01 1.5450849718746312e-01 4.7552825814758021e-01 1.5450849718746312e-01 0 0
2.100000000000e+11 0 0 5.0000000000000000e-01 -4.9047770029552959e-15 5.0000000000000000e-01 -4.9047770029552959e-15 0 0
2.101000000000e+11 0 0 4.7552825814755961e-01 -1.5450849718752652e-01 4.7552825814755961e-01 -1.5450849718752652e-01 0 0
2.102000000000e+11 0 0 4.0450849718747817e-01 -2.9389262614623046e-01 4.0450849718747817e-01 -2.9389262614623046e-01 0 0
2.103000000000e+11 0 0 2.9389262614624767e-01 -4.0450849718746562e-01 2.9389262614624767e-01 -4.0450849718746562e-01 0 0
2.104000000000e+11 0 0 1.5450849718743867e-01 -4.7552825814758820e-01 1.5450849718743867e-01 -4.7552825814758820e-01 0 0
2.105000000000e+11 0 0 -3.0631335004280243e-14 -5.0000000000000000e-01 -3.0631335004280243e-14 -5.0000000000000000e-01 0 0
2.106000000000e+11 0 0 -1.5450849718744286e-01 -4.7552825814758681e-01 -1.5450849718744286e-01 -4.7552825814758681e-01 0 0
2.107000000000e+11 0 0 -2.9389262614625128e-01 -4.0450849718746301e-01 -2.9389262614625128e-01 -4.0450849718746301e-01 0 0
2.108000000000e+11 0 0 -4.0450849718748072e-01 -2.9389262614622691e-01 -4.0450849718748072e-01 -2.9389262614622691e-01 0 0
2.109000000000e+11 0 0 -4.7552825814757854e-01 -1.5450849718746826e-01 -4.7552825814757854e-01 -1.5450849718746826e-01 0 0
2.110000000000e+11 0 0 -5.0000000000000000e-01 -4.8552585520282273e-16 -5.0000000000000000e-01 -4.8552585520282273e-16 0 0
2.111000000000e+11 0 0 -4.7552825814757888e-01 1.5450849718746734e-01 -4.7552825814757888e-01 1.5450849718746734e-01 0 0
2.112000000000e+11 0 0 -4.0450849718748133e-01 2.9389262614622608e-01 -4.0450849718748133e-01 2.9389262614622608e-01 0 0
2.113000000000e+11 0 0 -2.9389262614620609e-01 4.0450849718749587e-01 -2.9389262614620609e-01 4.0450849718749587e-01 0 0
2.114000000000e+11 0 0 -1.5450849718744378e-01 4.7552825814758654e-01 -1.5450849718744378e-01 4.7552825814758654e-01 0 0
2.115000000000e+11 0 0 -3.1602386714685891e-14 5.0000000000000000e-01 -3.1602386714685891e-14 5.0000000000000000e-01 0 0
2.116000000000e+11 0 0 1.5450849718749179e-01 4.7552825814757088e-01 1.5450849718749179e-01 4.7552825814757088e-01 0 0
2.117000000000e+11 0 0 2.9389262614624689e-01 4.0450849718746618e-01 2.9389262614624689e-01 4.0450849718746618e-01 0 0
2.118000000000e+11 0 0 4.0450849718751097e-01 2.9389262614618528e-01 4.0450849718751097e-01 2.9389262614618528e-01 0 0
2.119000000000e+11 0 0 4.7552825814757688e-01 1.5450849718747339e-01 4.7552825814757688e-01 1.5450849718747339e-01 0 0
2.120000000000e+11 0 0 5.0000000000000000e-01 5.8758287133609420e-15 5.0000000000000000e-01 5.8758287133609420e-15 0 0
2.121000000000e+11 0 0 4.7552825814756294e-01 -1.5450849718751627e-01 4.7552825814756294e-01 -1.5450849718751627e-01 0 0
2.122000000000e+11 0 0 4.0450849718745108e-01 -2.9389262614626771e-01 4.0450849718745108e-01 -2.9389262614626771e-01 0 0
2.123000000000e+11 0 0 2.9389262614625644e-01 -4.0450849718745929e-01 2.9389262614625644e-01 -4.0450849718745929e-01 0 0
2.124000000000e+11 0 0 1.5450849718744891e-01 -4.7552825814758487e-01 1.5450849718744891e-01 -4.7552825814758487e-01 0 0
2.125000000000e+11 0 0 -1.9850729287964005e-14 -5.0000000000000000e-01 -1.9850729287964005e-14 -5.0000000000000000e-01 0 0
2.126000000000e+11 0 0 -1.5450849718748666e-01 -4.7552825814757260e-01 -1.5450849718748666e-01 -4.7552825814757260e-01 0 0
2.127000000000e+11 0 0 -2.9389262614624256e-01 -4.0450849718746934e-01 -2.9389262614624256e-01 -4.0450849718746934e-01 0 0
2.128000000000e+11 0 0 -4.0450849718747439e-01 -2.9389262614623562e-01 -4.0450849718747439e-01 -2.9389262614623562e-01 0 0
2.129000000000e+11 0 0 -4.7552825814757521e-01 -1.5450849718747850e-01 -4.7552825814757521e-01 -1.5450849718747850e-01 0 0
2.130000000000e+11 0 0 -5.0000000000000000e-01 4.5577287289288953e-14 -5.0000000000000000e-01 4.5577287289288953e-14 0 0
2.131000000000e+11 0 0 -4.7552825814758221e-01 1.5450849718745707e-01 -4.7552825814758221e-01 1.5450849718745707e-01 0 0
2.132000000000e+11 0 0 -4.0450849718748766e-01 2.9389262614621736e-01 -4.0450849718748766e-01 2.9389262614621736e-01 0 0
2.133000000000e+11 0 0 -2.9389262614621481e-01 4.0450849718748955e-01 -2.9389262614621481e-01 4.0450849718748955e-01 0 0
2.134000000000e+11 0 0 -1.5450849718745405e-01 4.7552825814758320e-01 -1.5450849718745405e-01 4.7552825814758320e-01 0 0
2.135000000000e+11 0 0 -4.2382992431002129e-14 5.0000000000000000e-01 -4.2382992431002129e-14 5.0000000000000000e-01 0 0
2.136000000000e+11 0 0 1.5450849718748155e-01 4.7552825814757421e-01 1.5450849718748155e-01 4.7552825814757421e-01 0 0
2.137000000000e+11 0 0 2.9389262614623818e-01 4.0450849718747250e-01 2.9389262614623818e-01 4.0450849718747250e-01 0 0
2.138000000000e+11 0 0 4.0450849718750465e-01 2.9389262614619399e-01 4.0450849718750465e-01 2.9389262614619399e-01 0 0
2.139000000000e+11 0 0 4.7552825814757355e-01 1.5450849718748363e-01 4.7552825814757355e-01 1.5450849718748363e-01 0 0
2.140000000000e+11 0 0 5.0000000000000000e-01 1.6656434429677181e-14 5.0000000000000000e-01 1.6656434429677181e-14 0 0
2.141000000000e+11 0 0 4.7552825814756627e-01 -1.5450849718750601e-01 4.7552825814756627e-01 -1.5450849718750601e-01 0 0
2.142000000000e+11 0 0 4.0450849718745741e-01 -2.9389262614625900e-01 4.0450849718745741e-01 -2.9389262614625900e-01 0 0
2.143000000000e+11 0 0 2.9389262614621914e-01 -4.0450849718748638e-01 2.9389262614621914e-01 -4.0450849718748638e-01 0 0
2.144000000000e+11 0 0 1.5450849718745915e-01 -4.7552825814758154e-01 1.5450849718745915e-01 -4.7552825814758154e-01 0 0
2.145000000000e+11 0 0 -9.0701235716477672e-15 -5.0000000000000000e-01 -9.0701235716477672e-15 -5.0000000000000000e-01 0 0
2.146000000000e+11 0 0 -1.5450849718747642e-01 -4.7552825814757593e-01 -1.5450849718747642e-01 -4.7552825814757593e-01 0 0
2.147000000000e+11 0 0 -2.9389262614627981e-01 -4.0450849718744231e-01 -2.9389262614627981e-01 -4.0450849718744231e-01 0 0
2.148000000000e+11 0 0 -4.0450849718746806e-01 -2.9389262614624434e-01 -4.0450849718746806e-01 -2.9389262614624434e-01 0 0
2.149000000000e+11 0 0 -4.7552825814757188e-01 -1.5450849718748877e-01 -4.7552825814757188e-01 -1.5450849718748877e-01 0 0
2.150000000000e+11 0 0 -5.0000000000000000e-01 3.4796681572972715e-14 -5.0000000000000000e-01 3.4796681572972715e-14 0 0
2.151000000000e+11 0 0 -4.7552825814756794e-01 1.5450849718750090e-01 -4.7552825814756794e-01 1.5450849718750090e-01 0 0
2.152000000000e+11 0 0 -4.0450849718749399e-01 2.9389262614620865e-01 -4.0450849718749399e-01 2.9389262614620865e-01 0 0
2.153000000000e+11 0 0 -2.9389262614622352e-01 4.0450849718748322e-01 -2.9389262614622352e-01 4.0450849718748322e-01 0 0
2.154000000000e+11 0 0 -1.5450849718746429e-01 4.7552825814757982e-01 -1.5450849718746429e-01 4.7552825814757982e-01 0 0
2.155000000000e+11 0 0 3.6798207134896491e-15 5.0000000000000000e-01 3.6798207134896491e-15 5.0000000000000000e-01 0 0
2.156000000000e+11 0 0 1.5450849718747128e-01 4.7552825814757760e-01 1.5450849718747128e-01 4.7552825814757760e-01 0 0
2.157000000000e+11 0 0 2.9389262614622946e-01 4.0450849718747889e-01 2.9389262614622946e-01 4.0450849718747889e-01 0 0
2.158000000000e+11 0 0 4.0450849718749832e-01 2.9389262614620271e-01 4.0450849718749832e-01 2.9389262614620271e-01 0 0
2.159000000000e+11 0 0 4.7552825814758781e-01 1.5450849718743984e-01 4.7552825814758781e-01 1.5450849718743984e-01 0 0
2.160000000000e+11 0 0 5.0000000000000000e-01 2.7437040145993419e-14 5.0000000000000000e-01 2.7437040145993419e-14 0 0
2.161000000000e+11 0 0 4.7552825814756960e-01 -1.5450849718749576e-01 4.7552825814756960e-01 -1.5450849718749576e-01 0 0
2.162000000000e+11 0 0 4.0450849718746373e-01 -2.9389262614625028e-01 4.0450849718746373e-01 -2.9389262614625028e-01 0 0
2.163000000000e+11 0 0 2.9389262614622785e-01 -4.0450849718748005e-01 2.9389262614622785e-01 -4.0450849718748005e-01 0 0
2.164000000000e+11 0 0 1.5450849718746942e-01 -4.7552825814757821e-01 1.5450849718746942e-01 -4.7552825814757821e-01 0 0
2.165000000000e+11 0 0 1.7104821446684701e-15 -5.0000000000000000e-01 1.7104821446684701e-15 -5.0000000000000000e-01 0 0
2.166000000000e+11 0 0 -1.5450849718746618e-01 -4.7552825814757926e-01 -1.5450849718746618e-01 -4.7552825814757926e-01 0 0
2.167000000000e+11 0 0 -2.9389262614627110e-01 -4.0450849718744863e-01 -2.9389262614627110e-01 -4.0450849718744863e-01 0 0
2.168000000000e+11 0 0 -4.0450849718746174e-01 -2.9389262614625306e-01 -4.0450849718746174e-01 -2.9389262614625306e-01 0 0
2.169000000000e+11 0 0 -4.7552825814756855e-01 -1.5450849718749901e-01 -4.7552825814756855e-01 -1.5450849718749901e-01 0 0
2.170000000000e+11 0 0 -5.0000000000000000e-01 2.4016075856656477e-14 -5.0000000000000000e-01 2.4016075856656477e-14 0 0
2.171000000000e+11 0 0 -4.7552825814757127e-01 1.5450849718749063e-01 -4.7552825814757127e-01 1.5450849718749063e-01 0 0
2.172000000000e+11 0 0 -4.0450849718746690e-01 2.9389262614624589e-01 -4.0450849718746690e-01 2.9389262614624589e-01 0 0
2.173000000000e+11 0 0 -2.9389262614623224e-01 4.0450849718747683e-01 -2.9389262614623224e-01 4.0450849718747683e-01 0 0
2.174000000000e+11 0 0 -1.5450849718747456e-01 4.7552825814757649e-01 -1.5450849718747456e-01 4.7552825814757649e-01 0 0
2.175000000000e+11 0 0 -7.1007850028265889e-15 5.0000000000000000e-01 -7.1007850028265889e-15 5.0000000000000000e-01 0 0
2.176000000000e+11 0 0 1.5450849718751511e-01 4.7552825814756333e-01 1.5450849718751511e-01 4.7552825814756333e-01 0 0
2.177000000000e+11 0 0 2.9389262614622075e-01 4.0450849718748522e-01 2.9389262614622075e-01 4.0450849718748522e-01 0 0
2.178000000000e+11 0 0 4.0450849718749199e-01 2.9389262614621142e-01 4.0450849718749199e-01 2.9389262614621142e-01 0 0
2.179000000000e+11 0 0 4.7552825814758448e-01 1.5450849718745008e-01 4.7552825814758448e-01 1.5450849718745008e-01 0 0
2.180000000000e+11 0 0 5.0000000000000000e-01 -1.8625772998498358e-14 5.0000000000000000e-01 -1.8625772998498358e-14 0 0
2.181000000000e+11 0 0 4.7552825814757294e-01 -1.5450849718748549e-01 4.7552825814757294e-01 -1.5450849718748549e-01 0 0
2.182000000000e+11 0 0 4.0450849718747006e-01 -2.9389262614624156e-01 4.0450849718747006e-01 -2.9389262614624156e-01 0 0
2.183000000000e+11 0 0 2.9389262614623662e-01 -4.0450849718747367e-01 2.9389262614623662e-01 -4.0450849718747367e-01 0 0
2.184000000000e+11 0 0 1.5450849718742560e-01 -4.7552825814759242e-01 1.5450849718742560e-01 -4.7552825814759242e-01 0 0
2.185000000000e+11 0 0 1.2491087860984709e-14 -5.0000000000000000e-01 1.2491087860984709e-14 -5.0000000000000000e-01 0 0
2.186000000000e+11 0 0 -1.5450849718745591e-01 -4.7552825814758259e-01 -1.5450849718745591e-01 -4.7552825814758259e-01 0 0
2.187000000000e+11 0 0 -2.9389262614626238e-01 -4.0450849718745496e-01 -2.9389262614626238e-01 -4.0450849718745496e-01 0 0
2.188000000000e+11 0 0 -4.0450849718748882e-01 -2.9389262614621581e-01 -4.0450849718748882e-01 -2.9389262614621581e-01 0 0
2.189000000000e+11 0 0 -4.7552825814756522e-01 -1.5450849718750925e-01 -4.7552825814756522e-01 -1.5450849718750925e-01 0 0
2.190000000000e+11 0 0 -5.0000000000000000e-01 1.3235470140340239e-14 -5.0000000000000000e-01 1.3235470140340239e-14 0 0
2.191000000000e+11 0 0 -4.7552825814757460e-01 1.5450849718748039e-01 -4.7552825814757460e-01 1.5450849718748039e-01 0 0
2.192000000000e+11 0 0 -4.0450849718747328e-01 2.9389262614623718e-01 -4.0450849718747328e-01 2.9389262614623718e-01 0 0
2.193000000000e+11 0 0 -2.9389262614624095e-01 4.0450849718747051e-01 -2.9389262614624095e-01 4.0450849718747051e-01 0 0
2.194000000000e+11 0 0 -1.5450849718748480e-01 4.7552825814757316e-01 -1.5450849718748480e-01 4.7552825814757316e-01 0 0
2.195000000000e+11 0 0 3.8962028141665187e-14 5.0000000000000000e-01 3.8962028141665187e-14 5.0000000000000000e-01 0 0
2.196000000000e+11 0 0 1.5450849718750484e-01 4.7552825814756666e-01 1.5450849718750484e-01 4.7552825814756666e-01 0 0
2.197000000000e+11 0 0 2.9389262614621203e-01 4.0450849718749154e-01 2.9389262614621203e-01 4.0450849718749154e-01 0 0
2.198000000000e+11 0 0 4.0450849718748566e-01 2.9389262614622014e-01 4.0450849718748566e-01 2.9389262614622014e-01 0 0
2.199000000000e+11 0 0 4.7552825814758115e-01 1.5450849718746032e-01 4.7552825814758115e-01 1.5450849718746032e-01 0 0
2.200000000000e+11 0 0 5.0000000000000000e-01 -7.8451672821821203e-15 5.0000000000000000e-01 -7.8451672821821203e-15 0 0
2.201000000000e+11 0 0 4.7552825814755872e-01 -1.5450849718752932e-01 4.7552825814755872e-01 -1.5450849718752932e-01 0 0
2.202000000000e+11 0 0 4.0450849718747639e-01 -2.9389262614623285e-01 4.0450849718747639e-01 -2.9389262614623285e-01 0 0
2.203000000000e+11 0 0 2.9389262614624534e-01 -4.0450849718746734e-01 2.9389262614624534e-01 -4.0450849718746734e-01 0 0
2.204000000000e+11 0 0 1.5450849718743587e-01 -4.7552825814758909e-01 1.5450849718743587e-01 -4.7552825814758909e-01 0 0
2.205000000000e+11 0 0 -3.3571725283507068e-14 -5.0000000000000000e-01 -3.3571725283507068e-14 -5.0000000000000000e-01 0 0
2.206000000000e+11 0 0 -1.5450849718744566e-01 -4.7552825814758592e-01 -1.5450849718744566e-01 -4.7552825814758592e-01 0 0
2.207000000000e+11 0 0 -2.9389262614625367e-01 -4.0450849718746129e-01 -2.9389262614625367e-01 -4.0450849718746129e-01 0 0
2.208000000000e+11 0 0 -4.0450849718748244e-01 -2.9389262614622452e-01 -4.0450849718748244e-01 -2.9389262614622452e-01 0 0
2.209000000000e+11 0 0 -4.7552825814757949e-01 -1.5450849718746545e-01 -4.7552825814757949e-01 -1.5450849718746545e-01 0 0
2.210000000000e+11 0 0 -5.0000000000000000e-01 2.4548644240240014e-15 -5.0000000000000000e-01 2.4548644240240014e-15 0 0
2.211000000000e+11 0 0 -4.7552825814757793e-01 1.5450849718747012e-01 -4.7552825814757793e-01 1.5450849718747012e-01 0 0
2.212000000000e+11 0 0 -4.0450849718747961e-01 2.9389262614622846e-01 -4.0450849718747961e-01 2.9389262614622846e-01 0 0
2.213000000000e+11 0 0 -2.9389262614620371e-01 4.0450849718749760e-01 -2.9389262614620371e-01 4.0450849718749760e-01 0 0
2.214000000000e+11 0 0 -1.5450849718749504e-01 4.7552825814756983e-01 -1.5450849718749504e-01 4.7552825814756983e-01 0 0
2.215000000000e+11 0 0 2.8181422425348949e-14 5.0000000000000000e-01 2.8181422425348949e-14 5.0000000000000000e-01 0 0
2.216000000000e+11 0 0 1.5450849718749460e-01 4.7552825814756999e-01 1.5450849718749460e-01 4.7552825814756999e-01 0 0
2.217000000000e+11 0 0 2.9389262614624928e-01 4.0450849718746446e-01 2.9389262614624928e-01 4.0450849718746446e-01 0 0
2.218000000000e+11 0 0 4.0450849718747928e-01 2.9389262614622885e-01 4.0450849718747928e-01 2.9389262614622885e-01 0 0
2.219000000000e+11 0 0 4.7552825814757782e-01 1.5450849718747059e-01 4.7552825814757782e-01 1.5450849718747059e-01 0 0
2.220000000000e+11 0 0 5.0000000000000000e-01 2.9354384341341176e-15 5.0000000000000000e-01 2.9354384341341176e-15 0 0
2.221000000000e+11 0 0 4.7552825814756206e-01 -1.5450849718751905e-01 4.7552825814756206e-01 -1.5450849718751905e-01 0 0
2.222000000000e+11 0 0 4.0450849718748277e-01 -2.9389262614622413e-01 4.0450849718748277e-01 -2.9389262614622413e-01 0 0
2.223000000000e+11 0 0 2.9389262614625405e-01 -4.0450849718746101e-01 2.9389262614625405e-01 -4.0450849718746101e-01 0 0
2.224000000000e+11 0 0 1.5450849718744611e-01 -4.7552825814758576e-01 1.5450849718744611e-01 -4.7552825814758576e-01 0 0
2.225000000000e+11 0 0 -2.2791119567190830e-14 -5.0000000000000000e-01 -2.2791119567190830e-14 -5.0000000000000000e-01 0 0
2.226000000000e+11 0 0 -1.5450849718743540e-01 -4.7552825814758926e-01 -1.5450849718743540e-01 -4.7552825814758926e-01 0 0
2.227000000000e+11 0 0 -2.9389262614624495e-01 -4.0450849718746762e-01 -2.9389262614624495e-01 -4.0450849718746762e-01 0 0
2.228000000000e+11 0 0 -4.0450849718747611e-01 -2.9389262614623324e-01 -4.0450849718747611e-01 -2.9389262614623324e-01 0 0
2.229000000000e+11 0 0 -4.7552825814757615e-01 -1.5450849718747572e-01 -4.7552825814757615e-01 -1.5450849718747572e-01 0 0
2.230000000000e+11 0 0 -5.0000000000000000e-01 4.8517677568515778e-14 -5.0000000000000000e-01 4.8517677568515778e-14 0 0
2.231000000000e+11 0 0 -4.7552825814758126e-01 1.5450849718745988e-01 -4.7552825814758126e-01 1.5450849718745988e-01 0 0
2.232000000000e+11 0 0 -4.0450849718748594e-01 2.9389262614621975e-01 -4.0450849718748594e-01 2.9389262614621975e-01 0 0
2.233000000000e+11 0 0 -2.9389262614621242e-01 4.0450849718749127e-01 -2.9389262614621242e-01 4.0450849718749127e-01 0 0
2.234000000000e+11 0 0 -1.5450849718745124e-01 4.7552825814758409e-01 -1.5450849718745124e-01 4.7552825814758409e-01 0 0
2.235000000000e+11 0 0 1.7400816709032711e-14 5.0000000000000000e-01 1.7400816709032711e-14 5.0000000000000000e-01 0 0
2.236000000000e+11 0 0 1.5450849718748436e-01 4.7552825814757332e-01 1.5450849718748436e-01 4.7552825814757332e-01 0 0
2.237000000000e+11 0 0 2.9389262614624057e-01 4.0450849718747078e-01 2.9389262614624057e-01 4.0450849718747078e-01 0 0
2.238000000000e+11 0 0 4.0450849718750637e-01 2.9389262614619160e-01 4.0450849718750637e-01 2.9389262614619160e-01 0 0
2.239000000000e+11 0 0 4.7552825814757449e-01 1.5450849718748083e-01 4.7552825814757449e-01 1.5450849718748083e-01 0 0
2.240000000000e+11 0 0 5.0000000000000000e-01 1.3716044150450356e-14 5.0000000000000000e-01 1.3716044150450356e-14 0 0
2.241000000000e+11 0 0 4.7552825814756539e-01 -1.5450849718750881e-01 4.7552825814756539e-01 -1.5450849718750881e-01 0 0
2.242000000000e+11 0 0 4.0450849718745568e-01 -2.9389262614626138e-01 4.0450849718745568e-01 -2.9389262614626138e-01 0 0
2.243000000000e+11 0 0 2.9389262614626277e-01 -4.0450849718745469e-01 2.9389262614626277e-01 -4.0450849718745469e-01 0 0
2.244000000000e+11 0 0 1.5450849718745638e-01 -4.7552825814758243e-01 1.5450849718745638e-01 -4.7552825814758243e-01 0 0
2.245000000000e+11 0 0 -1.2010513850874592e-14 -5.0000000000000000e-01 -1.2010513850874592e-14 -5.0000000000000000e-01 0 0
2.246000000000e+11 0 0 -1.5450849718747922e-01 -4.7552825814757499e-01 -1.5450849718747922e-01 -4.7552825814757499e-01 0 0
2.247000000000e+11 0 0 -2.9389262614623624e-01 -4.0450849718747395e-01 -2.9389262614623624e-01 -4.0450849718747395e-01 0 0
2.248000000000e+11 0 0 -4.0450849718746978e-01 -2.9389262614624195e-01 -4.0450849718746978e-01 -2.9389262614624195e-01 0 0
2.249000000000e+11 0 0 -4.7552825814757282e-01 -1.5450849718748597e-01 -4.7552825814757282e-01 -1.5450849718748597e-01 0 0
2.250000000000e+11 0 0 -5.0000000000000000e-01 3.7737071852199540e-14 -5.0000000000000000e-01 3.7737071852199540e-14 0 0
2.251000000000e+11 0 0 -4.7552825814758459e-01 1.5450849718744963e-01 -4.7552825814758459e-01 1.5450849718744963e-01 0 0
2.252000000000e+11 0 0 -4.0450849718749227e-01 2.9389262614621103e-01 -4.0450849718749227e-01 2.9389262614621103e-01 0 0
2.253000000000e+11 0 0 -2.9389262614622114e-01 4.0450849718748494e-01 -2.9389262614622114e-01 4.0450849718748494e-01 0 0
2.254000000000e+11 0 0 -1.5450849718746149e-01 4.7552825814758076e-01 -1.5450849718746149e-01 4.7552825814758076e-01 0 0
2.255000000000e+11 0 0 6.6202109927164735e-15 5.0000000000000000e-01 6.6202109927164735e-15 5.0000000000000000e-01 0 0
2.256000000000e+11 0 0 1.5450849718747409e-01 4.7552825814757665e-01 1.5450849718747409e-01 4.7552825814757665e-01 0 0
2.257000000000e+11 0 0 2.9389262614623185e-01 4.0450849718747717e-01 2.9389262614623185e-01 4.0450849718747717e-01 0 0
2.258000000000e+11 0 0 4.0450849718750004e-01 2.9389262614620032e-01 4.0450849718750004e-01 2.9389262614620032e-01 0 0
2.259000000000e+11 0 0 4.7552825814757116e-01 1.5450849718749110e-01 4.7552825814757116e-01 1.5450849718749110e-01 0 0
2.260000000000e+11 0 0 5.0000000000000000e-01 2.4496649866766593e-14 5.0000000000000000e-01 2.4496649866766593e-14 0 0
2.261000000000e+11 0 0 4.7552825814756872e-01 -1.5450849718749857e-01 4.7552825814756872e-01 -1.5450849718749857e-01 0 0
2.262000000000e+11 0 0 4.0450849718746201e-01 -2.9389262614625267e-01 4.0450849718746201e-01 -2.9389262614625267e-01 0 0
2.263000000000e+11 0 0 2.9389262614622552e-01 -4.0450849718748177e-01 2.9389262614622552e-01 -4.0450849718748177e-01 0 0
2.264000000000e+11 0 0 1.5450849718746662e-01 -4.7552825814757910e-01 1.5450849718746662e-01 -4.7552825814757910e-01 0 0
2.265000000000e+11 0 0 -1.2299081345583543e-15 -5.0000000000000000e-01 -1.2299081345583543e-15 -5.0000000000000000e-01 0 0
2.266000000000e+11 0 0 -1.5450849718746895e-01 -4.7552825814757832e-01 -1.5450849718746895e-01 -4.7552825814757832e-01 0 0
2.267000000000e+11 0 0 -2.9389262614627348e-01 -4.0450849718744691e-01 -2.9389262614627348e-01 -4.0450849718744691e-01 0 0
2.268000000000e+11 0 0 -4.0450849718746346e-01 -2.9389262614625067e-01 -4.0450849718746346e-01 -2.9389262614625067e-01 0 0
2.269000000000e+11 0 0 -4.7552825814756949e-01 -1.5450849718749621e-01 -4.7552825814756949e-01 -1.5450849718749621e-01 0 0
2.270000000000e+11 0 0 -5.0000000000000000e-01 2.6956466135883302e-14 -5.0000000000000000e-01 2.6956466135883302e-14 0 0
2.271000000000e+11 0 0 -4.7552825814757038e-01 1.5450849718749343e-01 -4.7552825814757038e-01 1.5450849718749343e-01 0 0
2.272000000000e+11 0 0 -4.0450849718746518e-01 2.9389262614624828e-01 -4.0450849718746518e-01 2.9389262614624828e-01 0 0
2.273000000000e+11 0 0 -2.9389262614622985e-01 4.0450849718747856e-01 -2.9389262614622985e-01 4.0450849718747856e-01 0 0
2.274000000000e+11 0 0 -1.5450849718747175e-01 4.7552825814757743e-01 -1.5450849718747175e-01 4.7552825814757743e-01 0 0
2.275000000000e+11 0 0 5.2683024137208250e-14 5.0000000000000000e-01 5.2683024137208250e-14 5.0000000000000000e-01 0 0
2.276000000000e+11 0 0 1.5450849718746384e-01 4.7552825814757999e-01 1.5450849718746384e-01 4.7552825814757999e-01 0 0
2.277000000000e+11 0 0 2.9389262614622313e-01 4.0450849718748350e-01 2.9389262614622313e-01 4.0450849718748350e-01 0 0
2.278000000000e+11 0 0 4.0450849718749371e-01 2.9389262614620904e-01 4.0450849718749371e-01 2.9389262614620904e-01 0 0
2.279000000000e+11 0 0 4.7552825814758537e-01 1.5450849718744727e-01 4.7552825814758537e-01 1.5450849718744727e-01 0 0
2.280000000000e+11 0 0 5.0000000000000000e-01 3.5277255583082831e-14 5.0000000000000000e-01 3.5277255583082831e-14 0 0
2.281000000000e+11 0 0 4.7552825814757205e-01 -1.5450849718748830e-01 4.7552825814757205e-01 -1.5450849718748830e-01 0 0
2.282000000000e+11 0 0 4.0450849718746834e-01 -2.9389262614624395e-01 4.0450849718746834e-01 -2.9389262614624395e-01 0 0
2.283000000000e+11 0 0 2.9389262614623424e-01 -4.0450849718747539e-01 2.9389262614623424e-01 -4.0450849718747539e-01 0 0
2.284000000000e+11 0 0 1.5450849718747689e-01 -4.7552825814757577e-01 1.5450849718747689e-01 -4.7552825814757577e-01 0 0
2.285000000000e+11 0 0 9.5506975817578834e-15 -5.0000000000000000e-01 9.5506975817578834e-15 -5.0000000000000000e-01 0 0
2.286000000000e+11 0 0 -1.5450849718745871e-01 -4.7552825814758165e-01 -1.5450849718745871e-01 -4.7552825814758165e-01 0 0
2.287000000000e+11 0 0 -2.9389262614626477e-01 -4.0450849718745324e-01 -2.9389262614626477e-01 -4.0450849718745324e-01 0 0
2.288000000000e+11 0 0 -4.0450849718745713e-01 -2.9389262614625938e-01 -4.0450849718745713e-01 -2.9389262614625938e-01 0 0
2.289000000000e+11 0 0 -4.7552825814756616e-01 -1.5450849718750648e-01 -4.7552825814756616e-01 -1.5450849718750648e-01 0 0
2.290000000000e+11 0 0 -5.0000000000000000e-01 1.6175860419567065e-14 -5.0000000000000000e-01 1.6175860419567065e-14 0 0
2.291000000000e+11 0 0 -4.7552825814757371e-01 1.5450849718748319e-01 -4.7552825814757371e-01 1.5450849718748319e-01 0 0
2.292000000000e+11 0 0 -4.0450849718743809e-01 2.9389262614628558e-01 -4.0450849718743809e-01 2.9389262614628558e-01 0 0
2.293000000000e+11 0 0 -2.9389262614623857e-01 4.0450849718747223e-01 -2.9389262614623857e-01 4.0450849718747223e-01 0 0
2.294000000000e+11 0 0 -1.5450849718748200e-01 4.7552825814757410e-01 -1.5450849718748200e-01 4.7552825814757410e-01 0 0
2.295000000000e+11 0 0 4.1902418420892012e-14 5.0000000000000000e-01 4.1902418420892012e-14 5.0000000000000000e-01 0 0
2.296000000000e+11 0 0 1.5450849718750764e-01 4.7552825814756577e-01 1.5450849718750764e-01 4.7552825814756577e-01 0 0
2.297000000000e+11 0 0 2.9389262614621442e-01 4.0450849718748982e-01 2.9389262614621442e-01 4.0450849718748982e-01 0 0
2.298000000000e+11 0 0 4.0450849718748738e-01 2.9389262614621775e-01 4.0450849718748738e-01 2.9389262614621775e-01 0 0
2.299000000000e+11 0 0 4.7552825814758204e-01 1.5450849718745754e-01 4.7552825814758204e-01 1.5450849718745754e-01 0 0
2.300000000000e+11 0 0 5.0000000000000000e-01 -1.0785557561408946e-14 5.0000000000000000e-01 -1.0785557561408946e-14 0 0
2.301000000000e+11 0 0 4.7552825814757538e-01 -1.5450849718747806e-01 4.7552825814757538e-01 -1.5450849718747806e-01 0 0
2.302000000000e+11 0 0 4.0450849718747467e-01 -2.9389262614623524e-01 4.0450849718747467e-01 -2.9389262614623524e-01 0 0
2.303000000000e+11 0 0 2.9389262614624295e-01 -4.0450849718746906e-01 2.9389262614624295e-01 -4.0450849718746906e-01 0 0
2.304000000000e+11 0 0 1.5450849718743306e-01 -4.7552825814758998e-01 1.5450849718743306e-01 -4.7552825814758998e-01 0 0
2.305000000000e+11 0 0 2.0331303298074121e-14 -5.0000000000000000e-01 2.0331303298074121e-14 -5.0000000000000000e-01 0 0
2.306000000000e+11 0 0 -1.5450849718744847e-01 -4.7552825814758498e-01 -1.5450849718744847e-01 -4.7552825814758498e-01 0 0
2.307000000000e+11 0 0 -2.9389262614625605e-01 -4.0450849718745957e-01 -2.9389262614625605e-01 -4.0450849718745957e-01 0 0
2.308000000000e+11 0 0 -4.0450849718748422e-01 -2.9389262614622214e-01 -4.0450849718748422e-01 -2.9389262614622214e-01 0 0
2.309000000000e+11 0 0 -4.7552825814756283e-01 -1.5450849718751672e-01 -4.7552825814756283e-01 -1.5450849718751672e-01 0 0
2.310000000000e+11 0 0 -5.0000000000000000e-01 5.3952547032508258e-15 -5.0000000000000000e-01 5.3952547032508258e-15 0 0
2.311000000000e+11 0 0 -4.7552825814757704e-01 1.5450849718747292e-01 -4.7552825814757704e-01 1.5450849718747292e-01 0 0
2.312000000000e+11 0 0 -4.0450849718744442e-01 2.9389262614627687e-01 -4.0450849718744442e-01 2.9389262614627687e-01 0 0
2.313000000000e+11 0 0 -2.9389262614624728e-01 4.0450849718746590e-01 -2.9389262614624728e-01 4.0450849718746590e-01 0 0
2.314000000000e+11 0 0 -1.5450849718749227e-01 4.7552825814757077e-01 -1.5450849718749227e-01 4.7552825814757077e-01 0 0
2.315000000000e+11 0 0 3.1121812704575775e-14 5.0000000000000000e-01 3.1121812704575775e-14 5.0000000000000000e-01 0 0
2.316000000000e+11 0 0 1.5450849718749740e-01 4.7552825814756911e-01 1.5450849718749740e-01 4.7552825814756911e-01 0 0
2.317000000000e+11 0 0 2.9389262614620570e-01 4.0450849718749615e-01 2.9389262614620570e-01 4.0450849718749615e-01 0 0
2.318000000000e+11 0 0 4.0450849718748105e-01 2.9389262614622647e-01 4.0450849718748105e-01 2.9389262614622647e-01 0 0
2.319000000000e+11 0 0 4.7552825814757871e-01 1.5450849718746779e-01 4.7552825814757871e-01 1.5450849718746779e-01 0 0
2.320000000000e+11 0 0 5.0000000000000000e-01 -4.9518450927068616e-18 5.0000000000000000e-01 -4.9518450927068616e-18 0 0
2.321000000000e+11 0 0 4.7552825814756117e-01 -1.5450849718752185e-01 4.7552825814756117e-01 -1.5450849718752185e-01 0 0
2.322000000000e+11 0 0 4.0450849718748105e-01 -2.9389262614622652e-01 4.0450849718748105e-01 -2.9389262614622652e-01 0 0
2.323000000000e+11 0 0 2.9389262614625167e-01 -4.0450849718746273e-01 2.9389262614625167e-01 -4.0450849718746273e-01 0 0
2.324000000000e+11 0 0 1.5450849718744333e-01 -4.7552825814758665e-01 1.5450849718744333e-01 -4.7552825814758665e-01 0 0
2.325000000000e+11 0 0 -2.5731509846417656e-14 -5.0000000000000000e-01 -2.5731509846417656e-14 -5.0000000000000000e-01 0 0
2.326000000000e+11 0 0 -1.5450849718743820e-01 -4.7552825814758831e-01 -1.5450849718743820e-01 -4.7552825814758831e-01 0 0
2.327000000000e+11 0 0 -2.9389262614624734e-01 -4.0450849718746590e-01 -2.9389262614624734e-01 -4.0450849718746590e-01 0 0
2.328000000000e+11 0 0 -4.0450849718747789e-01 -2.9389262614623085e-01 -4.0450849718747789e-01 -2.9389262614623085e-01 0 0
2.329000000000e+11 0 0 -4.7552825814759458e-01 -1.5450849718741885e-01 -4.7552825814759458e-01 -1.5450849718741885e-01 0 0
2.330000000000e+11 0 0 -5.0000000000000000e-01 -5.3853510130654122e-15 -5.0000000000000000e-01 -5.3853510130654122e-15 0 0
2.331000000000e+11 0 0 -4.7552825814758037e-01 1.5450849718746268e-01 -4.7552825814758037e-01 1.5450849718746268e-01 0 0
2.332000000000e+11 0 0 -4.0450849718745080e-01 2.9389262614626810e-01 -4.0450849718745080e-01 2.9389262614626810e-01 0 0
2.333000000000e+11 0 0 -2.9389262614621003e-01 4.0450849718749299e-01 -2.9389262614621003e-01 4.0450849718749299e-01 0 0
2.334000000000e+11 0 0 -1.5450849718750251e-01 4.7552825814756744e-01 -1.5450849718750251e-01 4.7552825814756744e-01 0 0
2.335000000000e+11 0 0 2.0341206988259537e-14 5.0000000000000000e-01 2.0341206988259537e-14 5.0000000000000000e-01 0 0
2.336000000000e+11 0 0 1.5450849718748713e-01 4.7552825814757244e-01 1.5450849718748713e-01 4.7552825814757244e-01 0 0
2.337000000000e+11 0 0 2.9389262614624295e-01 4.0450849718746906e-01 2.9389262614624295e-01 4.0450849718746906e-01 0 0
2.338000000000e+11 0 0 4.0450849718747467e-01 2.9389262614623524e-01 4.0450849718747467e-01 2.9389262614623524e-01 0 0
2.339000000000e+11 0 0 4.7552825814757538e-01 1.5450849718747806e-01 4.7552825814757538e-01 1.5450849718747806e-01 0 0
2.340000000000e+11 0 0 5.0000000000000000e-01 1.0775653871223532e-14 5.0000000000000000e-01 1.0775653871223532e-14 0 0
2.341000000000e+11 0 0 4.7552825814756450e-01 -1.5450849718751161e-01 4.7552825814756450e-01 -1.5450849718751161e-01 0 0
2.342000000000e+11 0 0 4.0450849718748738e-01 -2.9389262614621775e-01 4.0450849718748738e-01 -2.9389262614621775e-01 0 0
2.343000000000e+11 0 0 2.9389262614626038e-01 -4.0450849718745641e-01 2.9389262614626038e-01 -4.0450849718745641e-01 0 0
2.344000000000e+11 0 0 1.5450849718745358e-01 -4.7552825814758332e-01 1.5450849718745358e-01 -4.7552825814758332e-01 0 0
2.345000000000e+11 0 0 -1.4950904130101418e-14 -5.0000000000000000e-01 -1.4950904130101418e-14 -5.0000000000000000e-01 0 0
2.346000000000e+11 0 0 -1.5450849718742796e-01 -4.7552825814759164e-01 -1.5450849718742796e-01 -4.7552825814759164e-01 0 0
2.347000000000e+11 0 0 -2.9389262614623857e-01 -4.0450849718747223e-01 -2.9389262614623857e-01 -4.0450849718747223e-01 0 0
2.348000000000e+11 0 0 -4.0450849718747151e-01 -2.9389262614623957e-01 -4.0450849718747151e-01 -2.9389262614623957e-01 0 0
2.349000000000e+11 0 0 -4.7552825814759125e-01 -1.5450849718742909e-01 -4.7552825814759125e-01 -1.5450849718742909e-01 0 0
2.350000000000e+11 0 0 -5.0000000000000000e-01 4.0677462131426366e-14 -5.0000000000000000e-01 4.0677462131426366e-14 0 0
2.351000000000e+11 0 0 -4.7552825814758370e-01 1.5450849718745241e-01 -4.7552825814758370e-01 1.5450849718745241e-01 0 0
2.352000000000e+11 0 0 -4.0450849718745713e-01 2.9389262614625938e-01 -4.0450849718745713e-01 2.9389262614625938e-01 0 0
2.353000000000e+11 0 0 -2.9389262614621875e-01 4.0450849718748666e-01 -2.9389262614621875e-01 4.0450849718748666e-01 0 0
2.354000000000e+11 0 0 -1.5450849718745871e-01 4.7552825814758165e-01 -1.5450849718745871e-01 4.7552825814758165e-01 0 0
2.355000000000e+11 0 0 9.5606012719432971e-15 5.0000000000000000e-01 9.5606012719432971e-15 5.0000000000000000e-01 0 0
2.356000000000e+11 0 0 1.5450849718747689e-01 4.7552825814757577e-01 1.5450849718747689e-01 4.7552825814757577e-01 0 0
2.357000000000e+11 0 0 2.9389262614623424e-01 4.0450849718747539e-01 2.9389262614623424e-01 4.0450849718747539e-01 0 0
2.358000000000e+11 0 0 4.0450849718750176e-01 2.9389262614619793e-01 4.0450849718750176e-01 2.9389262614619793e-01 0 0
2.359000000000e+11 0 0 4.7552825814757205e-01 1.5450849718748830e-01 4.7552825814757205e-01 1.5450849718748830e-01 0 0
2.360000000000e+11 0 0 5.0000000000000000e-01 2.1556259587539768e-14 5.0000000000000000e-01 2.1556259587539768e-14 0 0
2.361000000000e+11 0 0 4.7552825814756783e-01 -1.5450849718750134e-01 4.7552825814756783e-01 -1.5450849718750134e-01 0 0
2.362000000000e+11 0 0 4.0450849718746029e-01 -2.9389262614625505e-01 4.0450849718746029e-01 -2.9389262614625505e-01 0 0
2.363000000000e+11 0 0 2.9389262614626910e-01 -4.0450849718745008e-01 2.9389262614626910e-01 -4.0450849718745008e-01 0 0
2.364000000000e+11 0 0 1.5450849718746382e-01 -4.7552825814757999e-01 1.5450849718746382e-01 -4.7552825814757999e-01 0 0
2.365000000000e+11 0 0 -4.1702984137851789e-15 -5.0000000000000000e-01 -4.1702984137851789e-15 -5.0000000000000000e-01 0 0
2.366000000000e+11 0 0 -1.5450849718752582e-01 -4.7552825814755983e-01 -1.5450849718752582e-01 -4.7552825814755983e-01 0 0
2.367000000000e+11 0 0 -2.9389262614622985e-01 -4.0450849718747856e-01 -2.9389262614622985e-01 -4.0450849718747856e-01 0 0
2.368000000000e+11 0 0 -4.0450849718746518e-01 -2.9389262614624828e-01 -4.0450849718746518e-01 -2.9389262614624828e-01 0 0
2.369000000000e+11 0 0 -4.7552825814758792e-01 -1.5450849718743936e-01 -4.7552825814758792e-01 -1.5450849718743936e-01 0 0
2.370000000000e+11 0 0 -5.0000000000000000e-01 2.9896856415110128e-14 -5.0000000000000000e-01 2.9896856415110128e-14 0 0
2.371000000000e+11 0 0 -4.7552825814758704e-01 1.5450849718744217e-01 -4.7552825814758704e-01 1.5450849718744217e-01 0 0
2.372000000000e+11 0 0 -4.0450849718746346e-01 2.9389262614625067e-01 -4.0450849718746346e-01 2.9389262614625067e-01 0 0
2.373000000000e+11 0 0 -2.9389262614622746e-01 4.0450849718748033e-01 -2.9389262614622746e-01 4.0450849718748033e-01 0 0
2.374000000000e+11 0 0 -1.5450849718746895e-01 4.7552825814757832e-01 -1.5450849718746895e-01 4.7552825814757832e-01 0 0
2.375000000000e+11 0 0 -1.2200044443729405e-15 5.0000000000000000e-01 -1.2200044443729405e-15 5.0000000000000000e-01 0 0
2.376000000000e+11 0 0 1.5450849718746662e-01 4.7552825814757910e-01 1.5450849718746662e-01 4.7552825814757910e-01 0 0
2.377000000000e+11 0 0 2.9389262614622552e-01 4.0450849718748172e-01 2.9389262614622552e-01 4.0450849718748172e-01 0 0
2.378000000000e+11 0 0 4.0450849718749543e-01 2.9389262614620665e-01 4.0450849718749543e-01 2.9389262614620665e-01 0 0
2.379000000000e+11 0 0 4.7552825814758626e-01 1.5450849718744450e-01 4.7552825814758626e-01 1.5450849718744450e-01 0 0
2.380000000000e+11 0 0 5.0000000000000000e-01 3.2336865303856006e-14 5.0000000000000000e-01 3.2336865303856006e-14 0 0
2.381000000000e+11 0 0 4.7552825814757116e-01 -1.5450849718749110e-01 4.7552825814757116e-01 -1.5450849718749110e-01 0 0
2.382000000000e+11 0 0 4.0450849718746662e-01 -2.9389262614624634e-01 4.0450849718746662e-01 -2.9389262614624634e-01 0 0
2.383000000000e+11 0 0 2.9389262614618583e-01 -4.0450849718751053e-01 2.9389262614618583e-01 -4.0450849718751053e-01 0 0
2.384000000000e+11 0 0 1.5450849718747409e-01 -4.7552825814757665e-01 1.5450849718747409e-01 -4.7552825814757665e-01 0 0
2.385000000000e+11 0 0 6.6103073025310598e-15 -5.0000000000000000e-01 6.6103073025310598e-15 -5.0000000000000000e-01 0 0
2.386000000000e+11 0 0 -1.5450849718751558e-01 -4.7552825814756317e-01 -1.5450849718751558e-01 -4.7552825814756317e-01 0 0
2.387000000000e+11 0 0 -2.9389262614626716e-01 -4.0450849718745152e-01 -2.9389262614626716e-01 -4.0450849718745152e-01 0 0
2.388000000000e+11 0 0 -4.0450849718745885e-01 -2.9389262614625700e-01 -4.0450849718745885e-01 -2.9389262614625700e-01 0 0
2.389000000000e+11 0 0 -4.7552825814758459e-01 -1.5450849718744961e-01 -4.7552825814758459e-01 -1.5450849718744961e-01 0 0
2.390000000000e+11 0 0 -5.0000000000000000e-01 1.9116250698793890e-14 -5.0000000000000000e-01 1.9116250698793890e-14 0 0
2.391000000000e+11 0 0 -4.7552825814757282e-01 1.5450849718748597e-01 -4.7552825814757282e-01 1.5450849718748597e-01 0 0
2.392000000000e+11 0 0 -4.0450849718746978e-01 2.9389262614624195e-01 -4.0450849718746978e-01 2.9389262614624195e-01 0 0
2.393000000000e+11 0 0 -2.9389262614623618e-01 4.0450849718747400e-01 -2.9389262614623618e-01 4.0450849718747400e-01 0 0
2.394000000000e+11 0 0 -1.5450849718747919e-01 4.7552825814757499e-01 -1.5450849718747919e-01 4.7552825814757499e-01 0 0
2.395000000000e+11 0 0 4.4842808700118838e-14 5.0000000000000000e-01 4.4842808700118838e-14 5.0000000000000000e-01 0 0
2.396000000000e+11 0 0 1.5450849718745638e-01 4.7552825814758243e-01 1.5450849718745638e-01 4.7552825814758243e-01 0 0
2.397000000000e+11 0 0 2.9389262614621681e-01 4.0450849718748810e-01 2.9389262614621681e-01 4.0450849718748810e-01 0 0
2.398000000000e+11 0 0 4.0450849718748910e-01 2.9389262614621536e-01 4.0450849718748910e-01 2.9389262614621536e-01 0 0
2.399000000000e+11 0 0 4.7552825814758293e-01 1.5450849718745474e-01 4.7552825814758293e-01 1.5450849718745474e-01 0 0
2.400000000000e+11 0 0 5.0000000000000000e-01 4.3117471020172244e-14 5.0000000000000000e-01 4.3117471020172244e-14 0 0
2.401000000000e+11 0 0 4.7552825814757449e-01 -1.5450849718748086e-01 4.7552825814757449e-01 -1.5450849718748086e-01 0 0
2.402000000000e+11 0 0 4.0450849718747295e-01 -2.9389262614623762e-01 4.0450849718747295e-01 -2.9389262614623762e-01 0 0
2.403000000000e+11 0 0 2.9389262614619460e-01 -4.0450849718750420e-01 2.9389262614619460e-01 -4.0450849718750420e-01 0 0
2.404000000000e+11 0 0 1.5450849718748433e-01 -4.7552825814757332e-01 1.5450849718748433e-01 -4.7552825814757332e-01 0 0
2.405000000000e+11 0 0 1.7390913018847296e-14 -5.0000000000000000e-01 1.7390913018847296e-14 -5.0000000000000000e-01 0 0
2.406000000000e+11 0 0 -1.5450849718750531e-01 -4.7552825814756650e-01 -1.5450849718750531e-01 -4.7552825814756650e-01 0 0
2.407000000000e+11 0 0 -2.9389262614625844e-01 -4.0450849718745785e-01 -2.9389262614625844e-01 -4.0450849718745785e-01 0 0
2.408000000000e+11 0 0 -4.0450849718748594e-01 -2.9389262614621975e-01 -4.0450849718748594e-01 -2.9389262614621975e-01 0 0
2.409000000000e+11 0 0 -4.7552825814758126e-01 -1.5450849718745988e-01 -4.7552825814758126e-01 -1.5450849718745988e-01 0 0
2.410000000000e+11 0 0 -5.0000000000000000e-01 8.3356449824776502e-15 -5.0000000000000000e-01 8.3356449824776502e-15 0 0
2.411000000000e+11 0 0 -4.7552825814757615e-01 1.5450849718747572e-01 -4.7552825814757615e-01 1.5450849718747572e-01 0 0
2.412000000000e+11 0 0 -4.0450849718744269e-01 2.9389262614627920e-01 -4.0450849718744269e-01 2.9389262614627920e-01 0 0
2.413000000000e+11 0 0 -2.9389262614624490e-01 4.0450849718746762e-01 -2.9389262614624490e-01 4.0450849718746762e-01 0 0
2.414000000000e+11 0 0 -1.5450849718748946e-01 4.7552825814757166e-01 -1.5450849718748946e-01 4.7552825814757166e-01 0 0
2.415000000000e+11 0 0 3.4062202983802600e-14 5.0000000000000000e-01 3.4062202983802600e-14 5.0000000000000000e-01 0 0
2.416000000000e+11 0 0 1.5450849718750018e-01 4.7552825814756816e-01 1.5450849718750018e-01 4.7552825814756816e-01 0 0
2.417000000000e+11 0 0 2.9389262614620804e-01 4.0450849718749443e-01 2.9389262614620804e-01 4.0450849718749443e-01 0 0
2.418000000000e+11 0 0 4.0450849718748277e-01 2.9389262614622413e-01 4.0450849718748277e-01 2.9389262614622413e-01 0 0
2.419000000000e+11 0 0 4.7552825814757960e-01 1.5450849718746498e-01 4.7552825814757960e-01 1.5450849718746498e-01 0 0
2.420000000000e+11 0 0 5.0000000000000000e-01 -5.9788760985127541e-14 5.0000000000000000e-01 -5.9788760985127541e-14 0 0
2.421000000000e+11 0 0 4.7552825814757782e-01 -1.5450849718747059e-01 4.7552825814757782e-01 -1.5450849718747059e-01 0 0
2.422000000000e+11 0 0 4.0450849718747928e-01 -2.9389262614622885e-01 4.0450849718747928e-01 -2.9389262614622885e-01 0 0
2.423000000000e+11 0 0 2.9389262614620332e-01 -4.0450849718749787e-01 2.9389262614620332e-01 -4.0450849718749787e-01 0 0
2.424000000000e+11 0 0 1.5450849718744053e-01 -4.7552825814758759e-01 1.5450849718744053e-01 -4.7552825814758759e-01 0 0
2.425000000000e+11 0 0 2.8171518735163537e-14 -5.0000000000000000e-01 2.8171518735163537e-14 -5.0000000000000000e-01 0 0
2.426000000000e+11 0 0 -1.5450849718749507e-01 -4.7552825814756983e-01 -1.5450849718749507e-01 -4.7552825814756983e-01 0 0
2.427000000000e+11 0 0 -2.9389262614624967e-01 -4.0450849718746418e-01 -2.9389262614624967e-01 -4.0450849718746418e-01 0 0
2.428000000000e+11 0 0 -4.0450849718747961e-01 -2.9389262614622846e-01 -4.0450849718747961e-01 -2.9389262614622846e-01 0 0
2.429000000000e+11 0 0 -4.7552825814757793e-01 -1.5450849718747012e-01 -4.7552825814757793e-01 -1.5450849718747012e-01 0 0
2.430000000000e+11 0 0 -5.0000000000000000e-01 -2.4449607338385878e-15 -5.0000000000000000e-01 -2.4449607338385878e-15 0 0
2.431000000000e+11 0 0 -4.7552825814757949e-01 1.5450849718746545e-01 -4.7552825814757949e-01 1.5450849718746545e-01 0 0
2.432000000000e+11 0 0 -4.0450849718744908e-01 2.9389262614627049e-01 -4.0450849718744908e-01 2.9389262614627049e-01 0 0
2.433000000000e+11 0 0 -2.9389262614625367e-01 4.0450849718746129e-01 -2.9389262614625367e-01 4.0450849718746129e-01 0 0
2.434000000000e+11 0 0 -1.5450849718749970e-01 4.7552825814756833e-01 -1.5450849718749970e-01 4.7552825814756833e-01 0 0
2.435000000000e+11 0 0 2.3281597267486359e-14 5.0000000000000000e-01 2.3281597267486359e-14 5.0000000000000000e-01 0 0
2.436000000000e+11 0 0 1.5450849718748993e-01 4.7552825814757149e-01 1.5450849718748993e-01 4.7552825814757149e-01 0 0
2.437000000000e+11 0 0 2.9389262614624534e-01 4.0450849718746734e-01 2.9389262614624534e-01 4.0450849718746734e-01 0 0
2.438000000000e+11 0 0 4.0450849718747639e-01 2.9389262614623285e-01 4.0450849718747639e-01 2.9389262614623285e-01 0 0
2.439000000000e+11 0 0 4.7552825814757627e-01 1.5450849718747525e-01 4.7552825814757627e-01 1.5450849718747525e-01 0 0
2.440000000000e+11 0 0 5.0000000000000000e-01 -4.9008155268811310e-14 5.0000000000000000e-01 -4.9008155268811310e-14 0 0
2.441000000000e+11 0 0 4.7552825814756355e-01 -1.5450849718751442e-01 4.7552825814756355e-01 -1.5450849718751442e-01 0 0
2.442000000000e+11 0 0 4.0450849718748561e-01 -2.9389262614622014e-01 4.0450849718748561e-01 -2.9389262614622014e-01 0 0
2.443000000000e+11 0 0 2.9389262614621203e-01 -4.0450849718749154e-01 2.9389262614621203e-01 -4.0450849718749154e-01 0 0
2.444000000000e+11 0 0 1.5450849718745077e-01 -4.7552825814758426e-01 1.5450849718745077e-01 -4.7552825814758426e-01 0 0
2.445000000000e+11 0 0 -1.7891294409328240e-14 -5.0000000000000000e-01 -1.7891294409328240e-14 -5.0000000000000000e-01 0 0
2.446000000000e+11 0 0 -1.5450849718748480e-01 -4.7552825814757316e-01 -1.5450849718748480e-01 -4.7552825814757316e-01 0 0
2.447000000000e+11 0 0 -2.9389262614624095e-01 -4.0450849718747051e-01 -2.9389262614624095e-01 -4.0450849718747051e-01 0 0
2.448000000000e+11 0 0 -4.0450849718747328e-01 -2.9389262614623718e-01 -4.0450849718747328e-01 -2.9389262614623718e-01 0 0
2.449000000000e+11 0 0 -4.7552825814759220e-01 -1.5450849718742632e-01 -4.7552825814759220e-01 -1.5450849718742632e-01 0 0
2.450000000000e+11 0 0 -5.0000000000000000e-01 -1.3225566450154826e-14 -5.0000000000000000e-01 -1.3225566450154826e-14 0 0
2.451000000000e+11 0 0 -4.7552825814758282e-01 1.5450849718745521e-01 -4.7552825814758282e-01 1.5450849718745521e-01 0 0
2.452000000000e+11 0 0 -4.0450849718745541e-01 2.9389262614626177e-01 -4.0450849718745541e-01 2.9389262614626177e-01 0 0
2.453000000000e+11 0 0 -2.9389262614621636e-01 4.0450849718748838e-01 -2.9389262614621636e-01 4.0450849718748838e-01 0 0
2.454000000000e+11 0 0 -1.5450849718750997e-01 4.7552825814756500e-01 -1.5450849718750997e-01 4.7552825814756500e-01 0 0
2.455000000000e+11 0 0 1.2500991551170122e-14 5.0000000000000000e-01 1.2500991551170122e-14 5.0000000000000000e-01 0 0
2.456000000000e+11 0 0 1.5450849718747969e-01 4.7552825814757482e-01 1.5450849718747969e-01 4.7552825814757482e-01 0 0
2.457000000000e+11 0 0 2.9389262614623662e-01 4.0450849718747367e-01 2.9389262614623662e-01 4.0450849718747367e-01 0 0
2.458000000000e+11 0 0 4.0450849718747006e-01 2.9389262614624156e-01 4.0450849718747006e-01 2.9389262614624156e-01 0 0
2.459000000000e+11 0 0 4.7552825814757294e-01 1.5450849718748549e-01 4.7552825814757294e-01 1.5450849718748549e-01 0 0
2.460000000000e+11 0 0 5.0000000000000000e-01 -3.8227549552495072e-14 5.0000000000000000e-01 -3.8227549552495072e-14 0 0
2.461000000000e+11 0 0 4.7552825814756688e-01 -1.5450849718750415e-01 4.7552825814756688e-01 -1.5450849718750415e-01 0 0
2.462000000000e+11 0 0 4.0450849718749199e-01 -2.9389262614621142e-01 4.0450849718749199e-01 -2.9389262614621142e-01 0 0
2.463000000000e+11 0 0 2.9389262614622075e-01 -4.0450849718748522e-01 2.9389262614622075e-01 -4.0450849718748522e-01 0 0
2.464000000000e+11 0 0 1.5450849718746104e-01 -4.7552825814758093e-01 1.5450849718746104e-01 -4.7552825814758093e-01 0 0
2.465000000000e+11 0 0 -7.1106886930120033e-15 -5.0000000000000000e-01 -7.1106886930120033e-15 -5.0000000000000000e-01 0 0
2.466000000000e+11 0 0 -1.5450849718752863e-01 -4.7552825814755895e-01 -1.5450849718752863e-01 -4.7552825814755895e-01 0 0
2.467000000000e+11 0 0 -2.9389262614623224e-01 -4.0450849718747683e-01 -2.9389262614623224e-01 -4.0450849718747683e-01 0 0
2.468000000000e+11 0 0 -4.0450849718746690e-01 -2.9389262614624589e-01 -4.0450849718746690e-01 -2.9389262614624589e-01 0 0
2.469000000000e+11 0 0 -4.7552825814758887e-01 -1.5450849718743656e-01 -4.7552825814758887e-01 -1.5450849718743656e-01 0 0
2.470000000000e+11 0 0 -5.0000000000000000e-01 3.2837246694336953e-14 -5.0000000000000000e-01 3.2837246694336953e-14 0 0
2.471000000000e+11 0 0 -4.7552825814758615e-01 1.5450849718744497e-01 -4.7552825814758615e-01 1.5450849718744497e-01 0 0
2.472000000000e+11 0 0 -4.0450849718746174e-01 2.9389262614625306e-01 -4.0450849718746174e-01 2.9389262614625306e-01 0 0
2.473000000000e+11 0 0 -2.9389262614622508e-01 4.0450849718748205e-01 -2.9389262614622508e-01 4.0450849718748205e-01 0 0
2.474000000000e+11 0 0 -1.5450849718746615e-01 4.7552825814757926e-01 -1.5450849718746615e-01 4.7552825814757926e-01 0 0
2.475000000000e+11 0 0 1.7203858348538839e-15 5.0000000000000000e-01 1.7203858348538839e-15 5.0000000000000000e-01 0 0
2.476000000000e+11 0 0 1.5450849718746942e-01 4.7552825814757815e-01 1.5450849718746942e-01 4.7552825814757815e-01 0 0
2.477000000000e+11 0 0 2.9389262614627387e-01 4.0450849718744658e-01 2.9389262614627387e-01 4.0450849718744658e-01 0 0
2.478000000000e+11 0 0 4.0450849718749715e-01 2.9389262614620426e-01 4.0450849718749715e-01 2.9389262614620426e-01 0 0
2.479000000000e+11 0 0 4.7552825814756960e-01 1.5450849718749576e-01 4.7552825814756960e-01 1.5450849718749576e-01 0 0
2.480000000000e+11 0 0 5.0000000000000000e-01 -2.7446943836178831e-14 5.0000000000000000e-01 -2.7446943836178831e-14 0 0
2.481000000000e+11 0 0 4.7552825814757022e-01 -1.5450849718749390e-01 4.7552825814757022e-01 -1.5450849718749390e-01 0 0
2.482000000000e+11 0 0 4.0450849718746490e-01 -2.9389262614624873e-01 4.0450849718746490e-01 -2.9389262614624873e-01 0 0
2.483000000000e+11 0 0 2.9389262614622946e-01 -4.0450849718747889e-01 2.9389262614622946e-01 -4.0450849718747889e-01 0 0
2.484000000000e+11 0 0 1.5450849718747128e-01 -4.7552825814757760e-01 1.5450849718747128e-01 -4.7552825814757760e-01 0 0
2.485000000000e+11 0 0 3.6699170233042354e-15 -5.0000000000000000e-01 3.6699170233042354e-15 -5.0000000000000000e-01 0 0
2.486000000000e+11 0 0 -1.5450849718751836e-01 -4.7552825814756228e-01 -1.5450849718751836e-01 -4.7552825814756228e-01 0 0
2.487000000000e+11 0 0 -2.9389262614622352e-01 -4.0450849718748322e-01 -2.9389262614622352e-01 -4.0450849718748322e-01 0 0
2.488000000000e+11 0 0 -4.0450849718746057e-01 -2.9389262614625467e-01 -4.0450849718746057e-01 -2.9389262614625467e-01 0 0
2.489000000000e+11 0 0 -4.7552825814758554e-01 -1.5450849718744680e-01 -4.7552825814758554e-01 -1.5450849718744680e-01 0 0
2.490000000000e+11 0 0 -5.0000000000000000e-01 2.2056640978020712e-14 -5.0000000000000000e-01 2.2056640978020712e-14 0 0
2.491000000000e+11 0 0 -4.7552825814758948e-01 1.5450849718743470e-01 -4.7552825814758948e-01 1.5450849718743470e-01 0 0
2.492000000000e+11 0 0 -4.0450849718746806e-01 2.9389262614624434e-01 -4.0450849718746806e-01 2.9389262614624434e-01 0 0
2.493000000000e+11 0 0 -2.9389262614623385e-01 4.0450849718747572e-01 -2.9389262614623385e-01 4.0450849718747572e-01 0 0
2.494000000000e+11 0 0 -1.5450849718747642e-01 4.7552825814757593e-01 -1.5450849718747642e-01 4.7552825814757593e-01 0 0
2.495000000000e+11 0 0 4.7783198979345663e-14 5.0000000000000000e-01 4.7783198979345663e-14 5.0000000000000000e-01 0 0
2.496000000000e+11 0 0 1.5450849718745918e-01 4.7552825814758148e-01 1.5450849718745918e-01 4.7552825814758148e-01 0 0
2.497000000000e+11 0 0 2.9389262614626516e-01 4.0450849718745296e-01 2.9389262614626516e-01 4.0450849718745296e-01 0 0
2.498000000000e+11 0 0 4.0450849718749082e-01 2.9389262614621303e-01 4.0450849718749082e-01 2.9389262614621303e-01 0 0
2.499000000000e+11 0 0 4.7552825814758387e-01 1.5450849718745194e-01 4.7552825814758387e-01 1.5450849718745194e-01 0 0
2.500000000000e+11 0 0 5.0000000000000000e-01 -1.6666338119862593e-14 5.0000000000000000e-01 -1.6666338119862593e-14 0 0
2.501000000000e+11 0 0 4.7552825814757355e-01 -1.5450849718748363e-01 4.7552825814757355e-01 -1.5450849718748363e-01 0 0
2.502000000000e+11 0 0 4.0450849718747123e-01 -2.9389262614623995e-01 4.0450849718747123e-01 -2.9389262614623995e-01 0 0
2.503000000000e+11 0 0 2.9389262614619222e-01 -4.0450849718750592e-01 2.9389262614619222e-01 -4.0450849718750592e-01 0 0
2.504000000000e+11 0 0 1.5450849718748152e-01 -4.7552825814757427e-01 1.5450849718748152e-01 -4.7552825814757427e-01 0 0
2.505000000000e+11 0 0 1.4450522739620474e-14 -5.0000000000000000e-01 1.4450522739620474e-14 -5.0000000000000000e-01 0 0
2.506000000000e+11 0 0 -1.5450849718750811e-01 -4.7552825814756561e-01 -1.5450849718750811e-01 -4.7552825814756561e-01 0 0
2.507000000000e+11 0 0 -2.9389262614626077e-01 -4.0450849718745613e-01 -2.9389262614626077e-01 -4.0450849718745613e-01 0 0
2.508000000000e+11 0 0 -4.0450849718745424e-01 -2.9389262614626338e-01 -4.0450849718745424e-01 -2.9389262614626338e-01 0 0
2.509000000000e+11 0 0 -4.7552825814758221e-01 -1.5450849718745707e-01 -4.7552825814758221e-01 -1.5450849718745707e-01 0 0
2.510000000000e+11 0 0 -5.0000000000000000e-01 1.1276035261704475e-14 -5.0000000000000000e-01 1.1276035261704475e-14 0 0
2.511000000000e+11 0 0 -4.7552825814757521e-01 1.5450849718747853e-01 -4.7552825814757521e-01 1.5450849718747853e-01 0 0
2.512000000000e+11 0 0 -4.0450849718747439e-01 2.9389262614623562e-01 -4.0450849718747439e-01 2.9389262614623562e-01 0 0
2.513000000000e+11 0 0 -2.9389262614624256e-01 4.0450849718746934e-01 -2.9389262614624256e-01 4.0450849718746934e-01 0 0
2.514000000000e+11 0 0 -1.5450849718748666e-01 4.7552825814757260e-01 -1.5450849718748666e-01 4.7552825814757260e-01 0 0
2.515000000000e+11 0 0 3.7002593263029425e-14 5.0000000000000000e-01 3.7002593263029425e-14 5.0000000000000000e-01 0 0
2.516000000000e+11 0 0 1.5450849718744891e-01 4.7552825814758481e-01 1.5450849718744891e-01 4.7552825814758481e-01 0 0
2.517000000000e+11 0 0 2.9389262614625644e-01 4.0450849718745929e-01 2.9389262614625644e-01 4.0450849718745929e-01 0 0
2.518000000000e+11 0 0 4.0450849718748449e-01 2.9389262614622175e-01 4.0450849718748449e-01 2.9389262614622175e-01 0 0
2.519000000000e+11 0 0 4.7552825814758054e-01 1.5450849718746221e-01 4.7552825814758054e-01 1.5450849718746221e-01 0 0
2.520000000000e+11 0 0 5.0000000000000000e-01 -5.8857324035463556e-15 5.0000000000000000e-01 -5.8857324035463556e-15 0 0
2.521000000000e+11 0 0 4.7552825814757688e-01 -1.5450849718747339e-01 4.7552825814757688e-01 -1.5450849718747339e-01 0 0
2.522000000000e+11 0 0 4.0450849718747756e-01 -2.9389262614623124e-01 4.0450849718747756e-01 -2.9389262614623124e-01 0 0
2.523000000000e+11 0 0 2.9389262614620093e-01 -4.0450849718749959e-01 2.9389262614620093e-01 -4.0450849718749959e-01 0 0
2.524000000000e+11 0 0 1.5450849718743773e-01 -4.7552825814758848e-01 1.5450849718743773e-01 -4.7552825814758848e-01 0 0
2.525000000000e+11 0 0 2.5231128455936712e-14 -5.0000000000000000e-01 2.5231128455936712e-14 -5.0000000000000000e-01 0 0
2.526000000000e+11 0 0 -1.5450849718749785e-01 -4.7552825814756894e-01 -1.5450849718749785e-01 -4.7552825814756894e-01 0 0
2.527000000000e+11 0 0 -2.9389262614625206e-01 -4.0450849718746246e-01 -2.9389262614625206e-01 -4.0450849718746246e-01 0 0
2.528000000000e+11 0 0 -4.0450849718748133e-01 -2.9389262614622608e-01 -4.0450849718748133e-01 -2.9389262614622608e-01 0 0
2.529000000000e+11 0 0 -4.7552825814757888e-01 -1.5450849718746731e-01 -4.7552825814757888e-01 -1.5450849718746731e-01 0 0
2.530000000000e+11 0 0 -5.0000000000000000e-01 4.9542954538823644e-16 -5.0000000000000000e-01 4.9542954538823644e-16 0 0
2.531000000000e+11 0 0 -4.7552825814757854e-01 1.5450849718746826e-01 -4.7552825814757854e-01 1.5450849718746826e-01 0 0
2.532000000000e+11 0 0 -4.0450849718744730e-01 2.9389262614627287e-01 -4.0450849718744730e-01 2.9389262614627287e-01 0 0
2.533000000000e+11 0 0 -2.9389262614625128e-01 4.0450849718746301e-01 -2.9389262614625128e-01 4.0450849718746301e-01 0 0
2.534000000000e+11 0 0 -1.5450849718749693e-01 4.7552825814756927e-01 -1.5450849718749693e-01 4.7552825814756927e-01 0 0
2.535000000000e+11 0 0 2.6221987546713184e-14 5.0000000000000000e-01 2.6221987546713184e-14 5.0000000000000000e-01 0 0
2.536000000000e+11 0 0 1.5450849718749274e-01 4.7552825814757060e-01 1.5450849718749274e-01 4.7552825814757060e-01 0 0
2.537000000000e+11 0 0 2.9389262614624773e-01 4.0450849718746562e-01 2.9389262614624773e-01 4.0450849718746562e-01 0 0
2.538000000000e+11 0 0 4.0450849718747817e-01 2.9389262614623046e-01 4.0450849718747817e-01 2.9389262614623046e-01 0 0
2.539000000000e+11 0 0 4.7552825814757721e-01 1.5450849718747245e-01 4.7552825814757721e-01 1.5450849718747245e-01 0 0
2.540000000000e+11 0 0 5.0000000000000000e-01 -5.1948545548038135e-14 5.0000000000000000e-01 -5.1948545548038135e-14 0 0
2.541000000000e+11 0 0 4.7552825814758021e-01 -1.5450849718746315e-01 4.7552825814758021e-01 -1.5450849718746315e-01 0 0
2.542000000000e+11 0 0 4.0450849718748388e-01 -2.9389262614622252e-01 4.0450849718748388e-01 -2.9389262614622252e-01 0 0
2.543000000000e+11 0 0 2.9389262614620965e-01 -4.0450849718749327e-01 2.9389262614620965e-01 -4.0450849718749327e-01 0 0
2.544000000000e+11 0 0 1.5450849718744797e-01 -4.7552825814758515e-01 1.5450849718744797e-01 -4.7552825814758515e-01 0 0
2.545000000000e+11 0 0 3.6011734172252947e-14 -5.0000000000000000e-01 3.6011734172252947e-14 -5.0000000000000000e-01 0 0
2.546000000000e+11 0 0 -1.5450849718748760e-01 -4.7552825814757227e-01 -1.5450849718748760e-01 -4.7552825814757227e-01 0 0
2.547000000000e+11 0 0 -2.9389262614624334e-01 -4.0450849718746879e-01 -2.9389262614624334e-01 -4.0450849718746879e-01 0 0
2.548000000000e+11 0 0 -4.0450849718747500e-01 -2.9389262614623479e-01 -4.0450849718747500e-01 -2.9389262614623479e-01 0 0
2.549000000000e+11 0 0 -4.7552825814757554e-01 -1.5450849718747758e-01 -4.7552825814757554e-01 -1.5450849718747758e-01 0 0
2.550000000000e+11 0 0 -5.0000000000000000e-01 -1.0285176170928002e-14 -5.0000000000000000e-01 -1.0285176170928002e-14 0 0
2.551000000000e+11 0 0 -4.7552825814758187e-01 1.5450849718745802e-01 -4.7552825814758187e-01 1.5450849718745802e-01 0 0
2.552000000000e+11 0 0 -4.0450849718745369e-01 2.9389262614626416e-01 -4.0450849718745369e-01 2.9389262614626416e-01 0 0
2.553000000000e+11 0 0 -2.9389262614621398e-01 4.0450849718749010e-01 -2.9389262614621398e-01 4.0450849718749010e-01 0 0
2.554000000000e+11 0 0 -1.5450849718745310e-01 4.7552825814758348e-01 -1.5450849718745310e-01 4.7552825814758348e-01 0 0
2.555000000000e+11 0 0 1.5441381830396946e-14 5.0000000000000000e-01 1.5441381830396946e-14 5.0000000000000000e-01 0 0
2.556000000000e+11 0 0 1.5450849718748247e-01 4.7552825814757393e-01 1.5450849718748247e-01 4.7552825814757393e-01 0 0
2.557000000000e+11 0 0 2.9389262614628497e-01 4.0450849718743853e-01 2.9389262614628497e-01 4.0450849718743853e-01 0 0
2.558000000000e+11 0 0 4.0450849718747184e-01 2.9389262614623918e-01 4.0450849718747184e-01 2.9389262614623918e-01 0 0
2.559000000000e+11 0 0 4.7552825814757388e-01 1.5450849718748269e-01 4.7552825814757388e-01 1.5450849718748269e-01 0 0
2.560000000000e+11 0 0 5.0000000000000000e-01 -4.1167939831721897e-14 5.0000000000000000e-01 -4.1167939831721897e-14 0 0
2.561000000000e+11 0 0 4.7552825814756600e-01 -1.5450849718750695e-01 4.7552825814756600e-01 -1.5450849718750695e-01 0 0
2.562000000000e+11 0 0 4.0450849718749021e-01 -2.9389262614621381e-01 4.0450849718749021e-01 -2.9389262614621381e-01 0 0
2.563000000000e+11 0 0 2.9389262614621836e-01 -4.0450849718748694e-01 2.9389262614621836e-01 -4.0450849718748694e-01 0 0
2.564000000000e+11 0 0 1.5450849718745824e-01 -4.7552825814758182e-01 1.5450849718745824e-01 -4.7552825814758182e-01 0 0
2.565000000000e+11 0 0 -1.0051078972238827e-14 -5.0000000000000000e-01 -1.0051078972238827e-14 -5.0000000000000000e-01 0 0
2.566000000000e+11 0 0 -1.5450849718747736e-01 -4.7552825814757560e-01 -1.5450849718747736e-01 -4.7552825814757560e-01 0 0
2.567000000000e+11 0 0 -2.9389262614623463e-01 -4.0450849718747511e-01 -2.9389262614623463e-01 -4.0450849718747511e-01 0 0
2.568000000000e+11 0 0 -4.0450849718746862e-01 -2.9389262614624356e-01 -4.0450849718746862e-01 -2.9389262614624356e-01 0 0
2.569000000000e+11 0 0 -4.7552825814758976e-01 -1.5450849718743376e-01 -4.7552825814758976e-01 -1.5450849718743376e-01 0 0
2.570000000000e+11 0 0 -5.0000000000000000e-01 -2.1065781887244240e-14 -5.0000000000000000e-01 -2.1065781887244240e-14 0 0
2.571000000000e+11 0 0 -4.7552825814758520e-01 1.5450849718744775e-01 -4.7552825814758520e-01 1.5450849718744775e-01 0 0
2.572000000000e+11 0 0 -4.0450849718746001e-01 2.9389262614625544e-01 -4.0450849718746001e-01 2.9389262614625544e-01 0 0
2.573000000000e+11 0 0 -2.9389262614622275e-01 4.0450849718748377e-01 -2.9389262614622275e-01 4.0450849718748377e-01 0 0
2.574000000000e+11 0 0 -1.5450849718746337e-01 4.7552825814758015e-01 -1.5450849718746337e-01 4.7552825814758015e-01 0 0
2.575000000000e+11 0 0 4.6607761140807079e-15 5.0000000000000000e-01 4.6607761140807079e-15 5.0000000000000000e-01 0 0
2.576000000000e+11 0 0 1.5450849718747223e-01 4.7552825814757727e-01 1.5450849718747223e-01 4.7552825814757727e-01 0 0
2.577000000000e+11 0 0 2.9389262614627626e-01 4.0450849718744486e-01 2.9389262614627626e-01 4.0450849718744486e-01 0 0
2.578000000000e+11 0 0 4.0450849718746545e-01 2.9389262614624789e-01 4.0450849718746545e-01 2.9389262614624789e-01 0 0
2.579000000000e+11 0 0 4.7552825814757055e-01 1.5450849718749296e-01 4.7552825814757055e-01 1.5450849718749296e-01 0 0
2.580000000000e+11 0 0 5.0000000000000000e-01 -3.0387334115405659e-14 5.0000000000000000e-01 -3.0387334115405659e-14 0 0
2.581000000000e+11 0 0 4.7552825814756933e-01 -1.5450849718749671e-01 4.7552825814756933e-01 -1.5450849718749671e-01 0 0
2.582000000000e+11 0 0 4.0450849718746318e-01 -2.9389262614625106e-01 4.0450849718746318e-01 -2.9389262614625106e-01 0 0
2.583000000000e+11 0 0 2.9389262614622708e-01 -4.0450849718748061e-01 2.9389262614622708e-01 -4.0450849718748061e-01 0 0
2.584000000000e+11 0 0 1.5450849718746848e-01 -4.7552825814757849e-01 1.5450849718746848e-01 -4.7552825814757849e-01 0 0
2.585000000000e+11 0 0 7.2952674407741084e-16 -5.0000000000000000e-01 7.2952674407741084e-16 -5.0000000000000000e-01 0 0
2.586000000000e+11 0 0 -1.5450849718752116e-01 -4.7552825814756139e-01 -1.5450849718752116e-01 -4.7552825814756139e-01 0 0
2.587000000000e+11 0 0 -2.9389262614622591e-01 -4.0450849718748144e-01 -2.9389262614622591e-01 -4.0450849718748144e-01 0 0
2.588000000000e+11 0 0 -4.0450849718746229e-01 -2.9389262614625228e-01 -4.0450849718746229e-01 -2.9389262614625228e-01 0 0
2.589000000000e+11 0 0 -4.7552825814758642e-01 -1.5450849718744403e-01 -4.7552825814758642e-01 -1.5450849718744403e-01 0 0
2.590000000000e+11 0 0 -5.0000000000000000e-01 2.4997031257247537e-14 -5.0000000000000000e-01 2.4997031257247537e-14 0 0
2.591000000000e+11 0 0 -4.7552825814758853e-01 1.5450849718743750e-01 -4.7552825814758853e-01 1.5450849718743750e-01 0 0
2.592000000000e+11 0 0 -4.0450849718746634e-01 2.9389262614624673e-01 -4.0450849718746634e-01 2.9389262614624673e-01 0 0
2.593000000000e+11 0 0 -2.9389262614623146e-01 4.0450849718747744e-01 -2.9389262614623146e-01 4.0450849718747744e-01 0 0
2.594000000000e+11 0 0 -1.5450849718741955e-01 4.7552825814759436e-01 -1.5450849718741955e-01 4.7552825814759436e-01 0 0
2.595000000000e+11 0 0 -6.1198296022355300e-15 5.0000000000000000e-01 -6.1198296022355300e-15 5.0000000000000000e-01 0 0
2.596000000000e+11 0 0 1.5450849718746199e-01 4.7552825814758060e-01 1.5450849718746199e-01 4.7552825814758060e-01 0 0
2.597000000000e+11 0 0 2.9389262614626754e-01 4.0450849718745124e-01 2.9389262614626754e-01 4.0450849718745124e-01 0 0
2.598000000000e+11 0 0 4.0450849718749254e-01 2.9389262614621064e-01 4.0450849718749254e-01 2.9389262614621064e-01 0 0
2.599000000000e+11 0 0 4.7552825814756722e-01 1.5450849718750320e-01 4.7552825814756722e-01 1.5450849718750320e-01 0 0
2.600000000000e+11 0 0 5.0000000000000000e-01 -1.9606728399089418e-14 5.0000000000000000e-01 -1.9606728399089418e-14 0 0
2.601000000000e+11 0 0 4.7552825814757266e-01 -1.5450849718748644e-01 4.7552825814757266e-01 -1.5450849718748644e-01 0 0
2.602000000000e+11 0 0 4.0450849718746951e-01 -2.9389262614624234e-01 4.0450849718746951e-01 -2.9389262614624234e-01 0 0
2.603000000000e+11 0 0 2.9389262614623579e-01 -4.0450849718747428e-01 2.9389262614623579e-01 -4.0450849718747428e-01 0 0
2.604000000000e+11 0 0 1.5450849718747875e-01 -4.7552825814757516e-01 1.5450849718747875e-01 -4.7552825814757516e-01 0 0
2.605000000000e+11 0 0 1.1510132460393649e-14 -5.0000000000000000e-01 1.1510132460393649e-14 -5.0000000000000000e-01 0 0
2.606000000000e+11 0 0 -1.5450849718751092e-01 -4.7552825814756472e-01 -1.5450849718751092e-01 -4.7552825814756472e-01 0 0
2.607000000000e+11 0 0 -2.9389262614621720e-01 -4.0450849718748777e-01 -2.9389262614621720e-01 -4.0450849718748777e-01 0 0
2.608000000000e+11 0 0 -4.0450849718745596e-01 -2.9389262614626099e-01 -4.0450849718745596e-01 -2.9389262614626099e-01 0 0
2.609000000000e+11 0 0 -4.7552825814758309e-01 -1.5450849718745427e-01 -4.7552825814758309e-01 -1.5450849718745427e-01 0 0
2.610000000000e+11 0 0 -5.0000000000000000e-01 1.4216425540931299e-14 -5.0000000000000000e-01 1.4216425540931299e-14 0 0
2.611000000000e+11 0 0 -4.7552825814759186e-01 1.5450849718742726e-01 -4.7552825814759186e-01 1.5450849718742726e-01 0 0
2.612000000000e+11 0 0 -4.0450849718747267e-01 2.9389262614623801e-01 -4.0450849718747267e-01 2.9389262614623801e-01 0 0
2.613000000000e+11 0 0 -2.9389262614624018e-01 4.0450849718747112e-01 -2.9389262614624018e-01 4.0450849718747112e-01 0 0
2.614000000000e+11 0 0 -1.5450849718742982e-01 4.7552825814759103e-01 -1.5450849718742982e-01 4.7552825814759103e-01 0 0
2.615000000000e+11 0 0 3.9942983542256244e-14 5.0000000000000000e-01 3.9942983542256244e-14 5.0000000000000000e-01 0 0
2.616000000000e+11 0 0 1.5450849718745172e-01 4.7552825814758393e-01 1.5450849718745172e-01 4.7552825814758393e-01 0 0
2.617000000000e+11 0 0 2.9389262614625883e-01 4.0450849718745757e-01 2.9389262614625883e-01 4.0450849718745757e-01 0 0
2.618000000000e+11 0 0 4.0450849718748622e-01 2.9389262614621936e-01 4.0450849718748622e-01 2.9389262614621936e-01 0 0
2.619000000000e+11 0 0 4.7552825814758143e-01 1.5450849718745940e-01 4.7552825814758143e-01 1.5450849718745940e-01 0 0
2.620000000000e+11 0 0 5.0000000000000000e-01 -8.8261226827731800e-15 5.0000000000000000e-01 -8.8261226827731800e-15 0 0
2.621000000000e+11 0 0 4.7552825814757599e-01 -1.5450849718747620e-01 4.7552825814757599e-01 -1.5450849718747620e-01 0 0
2.622000000000e+11 0 0 4.0450849718747584e-01 -2.9389262614623363e-01 4.0450849718747584e-01 -2.9389262614623363e-01 0 0
2.623000000000e+11 0 0 2.9389262614619854e-01 -4.0450849718750131e-01 2.9389262614619854e-01 -4.0450849718750131e-01 0 0
2.624000000000e+11 0 0 1.5450849718748899e-01 -4.7552825814757183e-01 1.5450849718748899e-01 -4.7552825814757183e-01 0 0
2.625000000000e+11 0 0 2.2290738176709887e-14 -5.0000000000000000e-01 2.2290738176709887e-14 -5.0000000000000000e-01 0 0
2.626000000000e+11 0 0 -1.5450849718750065e-01 -4.7552825814756805e-01 -1.5450849718750065e-01 -4.7552825814756805e-01 0 0
2.627000000000e+11 0 0 -2.9389262614625444e-01 -4.0450849718746074e-01 -2.9389262614625444e-01 -4.0450849718746074e-01 0 0
2.628000000000e+11 0 0 -4.0450849718744963e-01 -2.9389262614626971e-01 -4.0450849718744963e-01 -2.9389262614626971e-01 0 0
2.629000000000e+11 0 0 -4.7552825814757976e-01 -1.5450849718746454e-01 -4.7552825814757976e-01 -1.5450849718746454e-01 0 0
2.630000000000e+11 0 0 -5.0000000000000000e-01 3.4358198246150606e-15 -5.0000000000000000e-01 3.4358198246150606e-15 0 0
2.631000000000e+11 0 0 -4.7552825814756006e-01 1.5450849718752513e-01 -4.7552825814756006e-01 1.5450849718752513e-01 0 0
2.632000000000e+11 0 0 -4.0450849718747900e-01 2.9389262614622930e-01 -4.0450849718747900e-01 2.9389262614622930e-01 0 0
2.633000000000e+11 0 0 -2.9389262614624889e-01 4.0450849718746479e-01 -2.9389262614624889e-01 4.0450849718746479e-01 0 0
2.634000000000e+11 0 0 -1.5450849718744006e-01 4.7552825814758770e-01 -1.5450849718744006e-01 4.7552825814758770e-01 0 0
2.635000000000e+11 0 0 2.9162377825940006e-14 5.0000000000000000e-01 2.9162377825940006e-14 5.0000000000000000e-01 0 0
2.636000000000e+11 0 0 1.5450849718744147e-01 4.7552825814758726e-01 1.5450849718744147e-01 4.7552825814758726e-01 0 0
2.637000000000e+11 0 0 2.9389262614625011e-01 4.0450849718746390e-01 2.9389262614625011e-01 4.0450849718746390e-01 0 0
2.638000000000e+11 0 0 4.0450849718747989e-01 2.9389262614622808e-01 4.0450849718747989e-01 2.9389262614622808e-01 0 0
2.639000000000e+11 0 0 4.7552825814757810e-01 1.5450849718746965e-01 4.7552825814757810e-01 1.5450849718746965e-01 0 0
2.640000000000e+11 0 0 5.0000000000000000e-01 1.9544830335430583e-15 5.0000000000000000e-01 1.9544830335430583e-15 0 0
2.641000000000e+11 0 0 4.7552825814757932e-01 -1.5450849718746593e-01 4.7552825814757932e-01 -1.5450849718746593e-01 0 0
2.642000000000e+11 0 0 4.0450849718748216e-01 -2.9389262614622491e-01 4.0450849718748216e-01 -2.9389262614622491e-01 0 0
2.643000000000e+11 0 0 2.9389262614620726e-01 -4.0450849718749499e-01 2.9389262614620726e-01 -4.0450849718749499e-01 0 0
2.644000000000e+11 0 0 1.5450849718744519e-01 -4.7552825814758604e-01 1.5450849718744519e-01 -4.7552825814758604e-01 0 0
2.645000000000e+11 0 0 3.3071343893026128e-14 -5.0000000000000000e-01 3.3071343893026128e-14 -5.0000000000000000e-01 0 0
2.646000000000e+11 0 0 -1.5450849718749041e-01 -4.7552825814757138e-01 -1.5450849718749041e-01 -4.7552825814757138e-01 0 0
2.647000000000e+11 0 0 -2.9389262614624573e-01 -4.0450849718746706e-01 -2.9389262614624573e-01 -4.0450849718746706e-01 0 0
2.648000000000e+11 0 0 -4.0450849718751014e-01 -2.9389262614618644e-01 -4.0450849718751014e-01 -2.9389262614618644e-01 0 0
2.649000000000e+11 0 0 -4.7552825814757643e-01 -1.5450849718747478e-01 -4.7552825814757643e-01 -1.5450849718747478e-01 0 0
2.650000000000e+11 0 0 -5.0000000000000000e-01 -7.3447858917011769e-15 -5.0000000000000000e-01 -7.3447858917011769e-15 0 0
2.651000000000e+11 0 0 -4.7552825814756339e-01 1.5450849718751486e-01 -4.7552825814756339e-01 1.5450849718751486e-01 0 0
2.652000000000e+11 0 0 -4.0450849718745191e-01 2.9389262614626654e-01 -4.0450849718745191e-01 2.9389262614626654e-01 0 0
2.653000000000e+11 0 0 -2.9389262614625761e-01 4.0450849718745840e-01 -2.9389262614625761e-01 4.0450849718745840e-01 0 0
2.654000000000e+11 0 0 -1.5450849718745030e-01 4.7552825814758437e-01 -1.5450849718745030e-01 4.7552825814758437e-01 0 0
2.655000000000e+11 0 0 1.8381772109623771e-14 5.0000000000000000e-01 1.8381772109623771e-14 5.0000000000000000e-01 0 0
2.656000000000e+11 0 0 1.5450849718748527e-01 4.7552825814757305e-01 1.5450849718748527e-01 4.7552825814757305e-01 0 0
2.657000000000e+11 0 0 2.9389262614624134e-01 4.0450849718747023e-01 2.9389262614624134e-01 4.0450849718747023e-01 0 0
2.658000000000e+11 0 0 4.0450849718747356e-01 2.9389262614623679e-01 4.0450849718747356e-01 2.9389262614623679e-01 0 0
2.659000000000e+11 0 0 4.7552825814757477e-01 1.5450849718747992e-01 4.7552825814757477e-01 1.5450849718747992e-01 0 0
2.660000000000e+11 0 0 5.0000000000000000e-01 -4.4108330110948716e-14 5.0000000000000000e-01 -4.4108330110948716e-14 0 0
2.661000000000e+11 0 0 4.7552825814758265e-01 -1.5450849718745568e-01 4.7552825814758265e-01 -1.5450849718745568e-01 0 0
2.662000000000e+11 0 0 4.0450849718748849e-01 -2.9389262614621620e-01 4.0450849718748849e-01 -2.9389262614621620e-01 0 0
2.663000000000e+11 0 0 2.9389262614621597e-01 -4.0450849718748866e-01 2.9389262614621597e-01 -4.0450849718748866e-01 0 0
2.664000000000e+11 0 0 1.5450849718745543e-01 -4.7552825814758271e-01 1.5450849718745543e-01 -4.7552825814758271e-01 0 0
2.665000000000e+11 0 0 4.3851949609342366e-14 -5.0000000000000000e-01 4.3851949609342366e-14 -5.0000000000000000e-01 0 0
2.666000000000e+11 0 0 -1.5450849718748014e-01 -4.7552825814757471e-01 -1.5450849718748014e-01 -4.7552825814757471e-01 0 0
2.667000000000e+11 0 0 -2.9389262614623701e-01 -4.0450849718747339e-01 -2.9389262614623701e-01 -4.0450849718747339e-01 0 0
2.668000000000e+11 0 0 -4.0450849718750376e-01 -2.9389262614619516e-01 -4.0450849718750376e-01 -2.9389262614619516e-01 0 0
2.669000000000e+11 0 0 -4.7552825814757310e-01 -1.5450849718748502e-01 -4.7552825814757310e-01 -1.5450849718748502e-01 0 0
2.670000000000e+11 0 0 -5.0000000000000000e-01 -1.8125391608017415e-14 -5.0000000000000000e-01 -1.8125391608017415e-14 0 0
2.671000000000e+11 0 0 -4.7552825814756672e-01 1.5450849718750462e-01 -4.7552825814756672e-01 1.5450849718750462e-01 0 0
2.672000000000e+11 0 0 -4.0450849718745829e-01 2.9389262614625783e-01 -4.0450849718745829e-01 2.9389262614625783e-01 0 0
2.673000000000e+11 0 0 -2.9389262614622036e-01 4.0450849718748549e-01 -2.9389262614622036e-01 4.0450849718748549e-01 0 0
2.674000000000e+11 0 0 -1.5450849718746057e-01 4.7552825814758104e-01 -1.5450849718746057e-01 4.7552825814758104e-01 0 0
2.675000000000e+11 0 0 7.6011663933075331e-15 5.0000000000000000e-01 7.6011663933075331e-15 5.0000000000000000e-01 0 0
2.676000000000e+11 0 0 1.5450849718747503e-01 4.7552825814757638e-01 1.5450849718747503e-01 4.7552825814757638e-01 0 0
2.677000000000e+11 0 0 2.9389262614627865e-01 4.0450849718744314e-01 2.9389262614627865e-01 4.0450849718744314e-01 0 0
2.678000000000e+11 0 0 4.0450849718746723e-01 2.9389262614624551e-01 4.0450849718746723e-01 2.9389262614624551e-01 0 0
2.679000000000e+11 0 0 4.7552825814757144e-01 1.5450849718749016e-01 4.7552825814757144e-01 1.5450849718749016e-01 0 0
2.680000000000e+11 0 0 5.0000000000000000e-01 -3.3327724394632478e-14 5.0000000000000000e-01 -3.3327724394632478e-14 0 0
2.681000000000e+11 0 0 4.7552825814756838e-01 -1.5450849718749948e-01 4.7552825814756838e-01 -1.5450849718749948e-01 0 0
2.682000000000e+11 0 0 4.0450849718749482e-01 -2.9389262614620748e-01 4.0450849718749482e-01 -2.9389262614620748e-01 0 0
2.683000000000e+11 0 0 2.9389262614622469e-01 -4.0450849718748233e-01 2.9389262614622469e-01 -4.0450849718748233e-01 0 0
2.684000000000e+11 0 0 1.5450849718746568e-01 -4.7552825814757937e-01 1.5450849718746568e-01 -4.7552825814757937e-01 0 0
2.685000000000e+11 0 0 -5.9054282395957432e-14 -5.0000000000000000e-01 -5.9054282395957432e-14 -5.0000000000000000e-01 0 0
2.686000000000e+11 0 0 -1.5450849718746990e-01 -4.7552825814757804e-01 -1.5450849718746990e-01 -4.7552825814757804e-01 0 0
2.687000000000e+11 0 0 -2.9389262614622830e-01 -4.0450849718747972e-01 -2.9389262614622830e-01 -4.0450849718747972e-01 0 0
2.688000000000e+11 0 0 -4.0450849718749743e-01 -2.9389262614620387e-01 -4.0450849718749743e-01 -2.9389262614620387e-01 0 0
2.689000000000e+11 0 0 -4.7552825814758737e-01 -1.5450849718744122e-01 -4.7552825814758737e-01 -1.5450849718744122e-01 0 0
2.690000000000e+11 0 0 -5.0000000000000000e-01 -2.8905997324333656e-14 -5.0000000000000000e-01 -2.8905997324333656e-14 0 0
2.691000000000e+11 0 0 -4.7552825814757010e-01 1.5450849718749438e-01 -4.7552825814757010e-01 1.5450849718749438e-01 0 0
2.692000000000e+11 0 0 -4.0450849718746462e-01 2.9389262614624911e-01 -4.0450849718746462e-01 2.9389262614624911e-01 0 0
2.693000000000e+11 0 0 -2.9389262614622907e-01 4.0450849718747917e-01 -2.9389262614622907e-01 4.0450849718747917e-01 0 0
2.694000000000e+11 0 0 -1.5450849718747081e-01 4.7552825814757771e-01 -1.5450849718747081e-01 4.7552825814757771e-01 0 0
2.695000000000e+11 0 0 -3.1794393230087056e-15 5.0000000000000000e-01 -3.1794393230087056e-15 5.0000000000000000e-01 0 0
2.696000000000e+11 0 0 1.5450849718746476e-01 4.7552825814757971e-01 1.5450849718746476e-01 4.7552825814757971e-01 0 0
2.697000000000e+11 0 0 2.9389262614626993e-01 4.0450849718744947e-01 2.9389262614626993e-01 4.0450849718744947e-01 0 0
2.698000000000e+11 0 0 4.0450849718746085e-01 2.9389262614625422e-01 4.0450849718746085e-01 2.9389262614625422e-01 0 0
2.699000000000e+11 0 0 4.7552825814756811e-01 1.5450849718750040e-01 4.7552825814756811e-01 1.5450849718750040e-01 0 0
2.700000000000e+11 0 0 5.0000000000000000e-01 -2.2547118678316243e-14 5.0000000000000000e-01 -2.2547118678316243e-14 0 0
2.701000000000e+11 0 0 4.7552825814757177e-01 -1.5450849718748924e-01 4.7552825814757177e-01 -1.5450849718748924e-01 0 0
2.702000000000e+11 0 0 4.0450849718743437e-01 -2.9389262614629075e-01 4.0450849718743437e-01 -2.9389262614629075e-01 0 0
2.703000000000e+11 0 0 2.9389262614623340e-01 -4.0450849718747600e-01 2.9389262614623340e-01 -4.0450849718747600e-01 0 0
2.704000000000e+11 0 0 1.5450849718747595e-01 -4.7552825814757604e-01 1.5450849718747595e-01 -4.7552825814757604e-01 0 0
2.705000000000e+11 0 0 -4.8273676679641188e-14 -5.0000000000000000e-01 -4.8273676679641188e-14 -5.0000000000000000e-01 0 0
2.706000000000e+11 0 0 -1.5450849718751369e-01 -4.7552825814756378e-01 -1.5450849718751369e-01 -4.7552825814756378e-01 0 0
2.707000000000e+11 0 0 -2.9389262614621958e-01 -4.0450849718748605e-01 -2.9389262614621958e-01 -4.0450849718748605e-01 0 0
2.708000000000e+11 0 0 -4.0450849718749110e-01 -2.9389262614621259e-01 -4.0450849718749110e-01 -2.9389262614621259e-01 0 0
2.709000000000e+11 0 0 -4.7552825814758404e-01 -1.5450849718745147e-01 -4.7552825814758404e-01 -1.5450849718745147e-01 0 0
2.710000000000e+11 0 0 -5.0000000000000000e-01 1.7156815820158124e-14 -5.0000000000000000e-01 1.7156815820158124e-14 0 0
2.711000000000e+11 0 0 -4.7552825814757338e-01 1.5450849718748411e-01 -4.7552825814757338e-01 1.5450849718748411e-01 0 0
2.712000000000e+11 0 0 -4.0450849718747095e-01 2.9389262614624040e-01 -4.0450849718747095e-01 2.9389262614624040e-01 0 0
2.713000000000e+11 0 0 -2.9389262614623779e-01 4.0450849718747284e-01 -2.9389262614623779e-01 4.0450849718747284e-01 0 0
2.714000000000e+11 0 0 -1.5450849718742701e-01 4.7552825814759198e-01 -1.5450849718742701e-01 4.7552825814759198e-01 0 0
2.715000000000e+11 0 0 -1.3960045039324944e-14 5.0000000000000000e-01 -1.3960045039324944e-14 5.0000000000000000e-01 0 0
2.716000000000e+11 0 0 1.5450849718745452e-01 4.7552825814758304e-01 1.5450849718745452e-01 4.7552825814758304e-01 0 0
2.717000000000e+11 0 0 2.9389262614626122e-01 4.0450849718745585e-01 2.9389262614626122e-01 4.0450849718745585e-01 0 0
2.718000000000e+11 0 0 4.0450849718748794e-01 2.9389262614621697e-01 4.0450849718748794e-01 2.9389262614621697e-01 0 0
2.719000000000e+11 0 0 4.7552825814756478e-01 1.5450849718751067e-01 4.7552825814756478e-01 1.5450849718751067e-01 0 0
2.720000000000e+11 0 0 5.0000000000000000e-01 -1.1766512962000004e-14 5.0000000000000000e-01 -1.1766512962000004e-14 0 0
2.721000000000e+11 0 0 4.7552825814757510e-01 -1.5450849718747897e-01 4.7552825814757510e-01 -1.5450849718747897e-01 0 0
2.722000000000e+11 0 0 4.0450849718744070e-01 -2.9389262614628198e-01 4.0450849718744070e-01 -2.9389262614628198e-01 0 0
2.723000000000e+11 0 0 2.9389262614624218e-01 -4.0450849718746967e-01 2.9389262614624218e-01 -4.0450849718746967e-01 0 0
2.724000000000e+11 0 0 1.5450849718748619e-01 -4.7552825814757271e-01 1.5450849718748619e-01 -4.7552825814757271e-01 0 0
2.725000000000e+11 0 0 -3.7493070963324950e-14 -5.0000000000000000e-01 -3.7493070963324950e-14 -5.0000000000000000e-01 0 0
2.726000000000e+11 0 0 -1.5450849718750345e-01 -4.7552825814756711e-01 -1.5450849718750345e-01 -4.7552825814756711e-01 0 0
2.727000000000e+11 0 0 -2.9389262614621081e-01 -4.0450849718749238e-01 -2.9389262614621081e-01 -4.0450849718749238e-01 0 0
2.728000000000e+11 0 0 -4.0450849718748477e-01 -2.9389262614622136e-01 -4.0450849718748477e-01 -2.9389262614622136e-01 0 0
2.729000000000e+11 0 0 -4.7552825814758071e-01 -1.5450849718746174e-01 -4.7552825814758071e-01 -1.5450849718746174e-01 0 0
2.730000000000e+11 0 0 -5.0000000000000000e-01 6.3762101038418854e-15 -5.0000000000000000e-01 6.3762101038418854e-15 0 0
2.731000000000e+11 0 0 -4.7552825814755917e-01 1.5450849718752790e-01 -4.7552825814755917e-01 1.5450849718752790e-01 0 0
2.732000000000e+11 0 0 -4.0450849718747728e-01 2.9389262614623168e-01 -4.0450849718747728e-01 2.9389262614623168e-01 0 0
2.733000000000e+11 0 0 -2.9389262614624651e-01 4.0450849718746651e-01 -2.9389262614624651e-01 4.0450849718746651e-01 0 0
2.734000000000e+11 0 0 -1.5450849718743725e-01 4.7552825814758864e-01 -1.5450849718743725e-01 4.7552825814758864e-01 0 0
2.735000000000e+11 0 0 3.2102768105166831e-14 5.0000000000000000e-01 3.2102768105166831e-14 5.0000000000000000e-01 0 0
2.736000000000e+11 0 0 1.5450849718744428e-01 4.7552825814758637e-01 1.5450849718744428e-01 4.7552825814758637e-01 0 0
2.737000000000e+11 0 0 2.9389262614625244e-01 4.0450849718746218e-01 2.9389262614625244e-01 4.0450849718746218e-01 0 0
2.738000000000e+11 0 0 4.0450849718748161e-01 2.9389262614622569e-01 4.0450849718748161e-01 2.9389262614622569e-01 0 0
2.739000000000e+11 0 0 4.7552825814757899e-01 1.5450849718746684e-01 4.7552825814757899e-01 1.5450849718746684e-01 0 0
2.740000000000e+11 0 0 5.0000000000000000e-01 -9.8590724568376608e-16 5.0000000000000000e-01 -9.8590724568376608e-16 0 0
2.741000000000e+11 0 0 4.7552825814757843e-01 -1.5450849718746873e-01 4.7552825814757843e-01 -1.5450849718746873e-01 0 0
2.742000000000e+11 0 0 4.0450849718744702e-01 -2.9389262614627326e-01 4.0450849718744702e-01 -2.9389262614627326e-01 0 0
2.743000000000e+11 0 0 2.9389262614620487e-01 -4.0450849718749676e-01 2.9389262614620487e-01 -4.0450849718749676e-01 0 0
2.744000000000e+11 0 0 1.5450849718749646e-01 -4.7552825814756938e-01 1.5450849718749646e-01 -4.7552825814756938e-01 0 0
2.745000000000e+11 0 0 -2.6712465247008715e-14 -5.0000000000000000e-01 -2.6712465247008715e-14 -5.0000000000000000e-01 0 0
2.746000000000e+11 0 0 -1.5450849718749321e-01 -4.7552825814757044e-01 -1.5450849718749321e-01 -4.7552825814757044e-01 0 0
2.747000000000e+11 0 0 -2.9389262614624811e-01 -4.0450849718746534e-01 -2.9389262614624811e-01 -4.0450849718746534e-01 0 0
2.748000000000e+11 0 0 -4.0450849718747844e-01 -2.9389262614623007e-01 -4.0450849718747844e-01 -2.9389262614623007e-01 0 0
2.749000000000e+11 0 0 -4.7552825814757732e-01 -1.5450849718747198e-01 -4.7552825814757732e-01 -1.5450849718747198e-01 0 0
2.750000000000e+11 0 0 -5.0000000000000000e-01 -4.4043956124743533e-15 -5.0000000000000000e-01 -4.4043956124743533e-15 0 0
2.751000000000e+11 0 0 -4.7552825814756250e-01 1.5450849718751766e-01 -4.7552825814756250e-01 1.5450849718751766e-01 0 0
2.752000000000e+11 0 0 -4.0450849718748361e-01 2.9389262614622291e-01 -4.0450849718748361e-01 2.9389262614622291e-01 0 0
2.753000000000e+11 0 0 -2.9389262614625522e-01 4.0450849718746013e-01 -2.9389262614625522e-01 4.0450849718746013e-01 0 0
2.754000000000e+11 0 0 -1.5450849718744752e-01 4.7552825814758531e-01 -1.5450849718744752e-01 4.7552825814758531e-01 0 0
2.755000000000e+11 0 0 2.1322162388850596e-14 5.0000000000000000e-01 2.1322162388850596e-14 5.0000000000000000e-01 0 0
2.756000000000e+11 0 0 1.5450849718743401e-01 4.7552825814758970e-01 1.5450849718743401e-01 4.7552825814758970e-01 0 0
2.757000000000e+11 0 0 2.9389262614624373e-01 4.0450849718746851e-01 2.9389262614624373e-01 4.0450849718746851e-01 0 0
2.758000000000e+11 0 0 4.0450849718747528e-01 2.9389262614623440e-01 4.0450849718747528e-01 2.9389262614623440e-01 0 0
2.759000000000e+11 0 0 4.7552825814757566e-01 1.5450849718747711e-01 4.7552825814757566e-01 1.5450849718747711e-01 0 0
2.760000000000e+11 0 0 5.0000000000000000e-01 -4.7048720390175541e-14 5.0000000000000000e-01 -4.7048720390175541e-14 0 0
2.761000000000e+11 0 0 4.7552825814758176e-01 -1.5450849718745849e-01 4.7552825814758176e-01 -1.5450849718745849e-01 0 0
2.762000000000e+11 0 0 4.0450849718745335e-01 -2.9389262614626455e-01 4.0450849718745335e-01 -2.9389262614626455e-01 0 0
2.763000000000e+11 0 0 2.9389262614621359e-01 -4.0450849718749038e-01 2.9389262614621359e-01 -4.0450849718749038e-01 0 0
2.764000000000e+11 0 0 1.5450849718745263e-01 -4.7552825814758365e-01 1.5450849718745263e-01 -4.7552825814758365e-01 0 0
2.765000000000e+11 0 0 -1.5931859530692477e-14 -5.0000000000000000e-01 -1.5931859530692477e-14 -5.0000000000000000e-01 0 0
2.766000000000e+11 0 0 -1.5450849718748294e-01 -4.7552825814757377e-01 -1.5450849718748294e-01 -4.7552825814757377e-01 0 0
2.767000000000e+11 0 0 -2.9389262614623940e-01 -4.0450849718747167e-01 -2.9389262614623940e-01 -4.0450849718747167e-01 0 0
2.768000000000e+11 0 0 -4.0450849718750553e-01 -2.9389262614619277e-01 -4.0450849718750553e-01 -2.9389262614619277e-01 0 0
2.769000000000e+11 0 0 -4.7552825814757399e-01 -1.5450849718748225e-01 -4.7552825814757399e-01 -1.5450849718748225e-01 0 0
2.770000000000e+11 0 0 -5.0000000000000000e-01 -1.5185001328790590e-14 -5.0000000000000000e-01 -1.5185001328790590e-14 0 0
2.771000000000e+11 0 0 -4.7552825814756583e-01 1.5450849718750742e-01 -4.7552825814756583e-01 1.5450849718750742e-01 0 0
2.772000000000e+11 0 0 -4.0450849718745652e-01 2.9389262614626022e-01 -4.0450849718745652e-01 2.9389262614626022e-01 0 0
2.773000000000e+11 0 0 -2.9389262614626394e-01 4.0450849718745380e-01 -2.9389262614626394e-01 4.0450849718745380e-01 0 0
2.774000000000e+11 0 0 -1.5450849718745777e-01 4.7552825814758198e-01 -1.5450849718745777e-01 4.7552825814758198e-01 0 0
2.775000000000e+11 0 0 1.0541556672534357e-14 5.0000000000000000e-01 1.0541556672534357e-14 5.0000000000000000e-01 0 0
2.776000000000e+11 0 0 1.5450849718747781e-01 4.7552825814757543e-01 1.5450849718747781e-01 4.7552825814757543e-01 0 0
2.777000000000e+11 0 0 2.9389262614623501e-01 4.0450849718747484e-01 2.9389262614623501e-01 4.0450849718747484e-01 0 0
2.778000000000e+11 0 0 4.0450849718746895e-01 2.9389262614624312e-01 4.0450849718746895e-01 2.9389262614624312e-01 0 0
2.779000000000e+11 0 0 4.7552825814758992e-01 1.5450849718743331e-01 4.7552825814758992e-01 1.5450849718743331e-01 0 0
2.780000000000e+11 0 0 5.0000000000000000e-01 -3.6268114673859303e-14 5.0000000000000000e-01 -3.6268114673859303e-14 0 0
2.781000000000e+11 0 0 4.7552825814758509e-01 -1.5450849718744822e-01 4.7552825814758509e-01 -1.5450849718744822e-01 0 0
2.782000000000e+11 0 0 4.0450849718745974e-01 -2.9389262614625583e-01 4.0450849718745974e-01 -2.9389262614625583e-01 0 0
2.783000000000e+11 0 0 2.9389262614622230e-01 -4.0450849718748405e-01 2.9389262614622230e-01 -4.0450849718748405e-01 0 0
2.784000000000e+11 0 0 1.5450849718746290e-01 -4.7552825814758032e-01 1.5450849718746290e-01 -4.7552825814758032e-01 0 0
2.785000000000e+11 0 0 -5.1512538143762378e-15 -5.0000000000000000e-01 -5.1512538143762378e-15 -5.0000000000000000e-01 0 0
2.786000000000e+11 0 0 -1.5450849718747270e-01 -4.7552825814757710e-01 -1.5450849718747270e-01 -4.7552825814757710e-01 0 0
2.787000000000e+11 0 0 -2.9389262614623068e-01 -4.0450849718747800e-01 -2.9389262614623068e-01 -4.0450849718747800e-01 0 0
2.788000000000e+11 0 0 -4.0450849718749915e-01 -2.9389262614620149e-01 -4.0450849718749915e-01 -2.9389262614620149e-01 0 0
2.789000000000e+11 0 0 -4.7552825814758826e-01 -1.5450849718743842e-01 -4.7552825814758826e-01 -1.5450849718743842e-01 0 0
2.790000000000e+11 0 0 -5.0000000000000000e-01 -2.5965607045106828e-14 -5.0000000000000000e-01 -2.5965607045106828e-14 0 0
2.791000000000e+11 0 0 -4.7552825814756916e-01 1.5450849718749715e-01 -4.7552825814756916e-01 1.5450849718749715e-01 0 0
2.792000000000e+11 0 0 -4.0450849718746290e-01 2.9389262614625145e-01 -4.0450849718746290e-01 2.9389262614625145e-01 0 0
2.793000000000e+11 0 0 -2.9389262614622669e-01 4.0450849718748089e-01 -2.9389262614622669e-01 4.0450849718748089e-01 0 0
2.794000000000e+11 0 0 -1.5450849718746801e-01 4.7552825814757865e-01 -1.5450849718746801e-01 4.7552825814757865e-01 0 0
2.795000000000e+11 0 0 -2.3904904378188126e-16 5.0000000000000000e-01 -2.3904904378188126e-16 5.0000000000000000e-01 0 0
2.796000000000e+11 0 0 1.5450849718746756e-01 4.7552825814757876e-01 1.5450849718746756e-01 4.7552825814757876e-01 0 0
2.797000000000e+11 0 0 2.9389262614627232e-01 4.0450849718744775e-01 2.9389262614627232e-01 4.0450849718744775e-01 0 0
2.798000000000e+11 0 0 4.0450849718746262e-01 2.9389262614625189e-01 4.0450849718746262e-01 2.9389262614625189e-01 0 0
2.799000000000e+11 0 0 4.7552825814758659e-01 1.5450849718744356e-01 4.7552825814758659e-01 1.5450849718744356e-01 0 0
2.800000000000e+11 0 0 5.0000000000000000e-01 -2.5487508957543065e-14 5.0000000000000000e-01 -2.5487508957543065e-14 0 0
2.801000000000e+11 0 0 4.7552825814757083e-01 -1.5450849718749204e-01 4.7552825814757083e-01 -1.5450849718749204e-01 0 0
2.802000000000e+11 0 0 4.0450849718746607e-01 -2.9389262614624712e-01 4.0450849718746607e-01 -2.9389262614624712e-01 0 0
2.803000000000e+11 0 0 2.9389262614623107e-01 -4.0450849718747772e-01 2.9389262614623107e-01 -4.0450849718747772e-01 0 0
2.804000000000e+11 0 0 1.5450849718747314e-01 -4.7552825814757699e-01 1.5450849718747314e-01 -4.7552825814757699e-01 0 0
2.805000000000e+11 0 0 -5.1214066958868013e-14 -5.0000000000000000e-01 -5.1214066958868013e-14 -5.0000000000000000e-01 0 0
2.806000000000e+11 0 0 -1.5450849718746243e-01 -4.7552825814758043e-01 -1.5450849718746243e-01 -4.7552825814758043e-01 0 0
2.807000000000e+11 0 0 -2.9389262614622191e-01 -4.0450849718748433e-01 -2.9389262614622191e-01 -4.0450849718748433e-01 0 0
2.808000000000e+11 0 0 -4.0450849718749282e-01 -2.9389262614621026e-01 -4.0450849718749282e-01 -2.9389262614621026e-01 0 0
2.809000000000e+11 0 0 -4.7552825814758493e-01 -1.5450849718744869e-01 -4.7552825814758493e-01 -1.5450849718744869e-01 0 0
2.810000000000e+11 0 0 -5.0000000000000000e-01 -3.6746212761423069e-14 -5.0000000000000000e-01 -3.6746212761423069e-14 0 0
2.811000000000e+11 0 0 -4.7552825814757249e-01 1.5450849718748691e-01 -4.7552825814757249e-01 1.5450849718748691e-01 0 0
2.812000000000e+11 0 0 -4.0450849718746923e-01 2.9389262614624273e-01 -4.0450849718746923e-01 2.9389262614624273e-01 0 0
2.813000000000e+11 0 0 -2.9389262614623540e-01 4.0450849718747456e-01 -2.9389262614623540e-01 4.0450849718747456e-01 0 0
2.814000000000e+11 0 0 -1.5450849718747828e-01 4.7552825814757532e-01 -1.5450849718747828e-01 4.7552825814757532e-01 0 0
2.815000000000e+11 0 0 -1.1019654760098119e-14 5.0000000000000000e-01 -1.1019654760098119e-14 5.0000000000000000e-01 0 0
2.816000000000e+11 0 0 1.5450849718745732e-01 4.7552825814758209e-01 1.5450849718745732e-01 4.7552825814758209e-01 0 0
2.817000000000e+11 0 0 2.9389262614626355e-01 4.0450849718745407e-01 2.9389262614626355e-01 4.0450849718745407e-01 0 0
2.818000000000e+11 0 0 4.0450849718748966e-01 2.9389262614621459e-01 4.0450849718748966e-01 2.9389262614621459e-01 0 0
2.819000000000e+11 0 0 4.7552825814758326e-01 1.5450849718745380e-01 4.7552825814758326e-01 1.5450849718745380e-01 0 0
2.820000000000e+11 0 0 5.0000000000000000e-01 -1.4706903241226827e-14 5.0000000000000000e-01 -1.4706903241226827e-14 0 0
2.821000000000e+11 0 0 4.7552825814757416e-01 -1.5450849718748177e-01 4.7552825814757416e-01 -1.5450849718748177e-01 0 0
2.822000000000e+11 0 0 4.0450849718743898e-01 -2.9389262614628436e-01 4.0450849718743898e-01 -2.9389262614628436e-01 0 0
2.823000000000e+11 0 0 2.9389262614623979e-01 -4.0450849718747139e-01 2.9389262614623979e-01 -4.0450849718747139e-01 0 0
2.824000000000e+11 0 0 1.5450849718748341e-01 -4.7552825814757366e-01 1.5450849718748341e-01 -4.7552825814757366e-01 0 0
2.825000000000e+11 0 0 -4.0433461242551775e-14 -5.0000000000000000e-01 -4.0433461242551775e-14 -5.0000000000000000e-01 0 0
2.826000000000e+11 0 0 -1.5450849718750626e-01 -4.7552825814756622e-01 -1.5450849718750626e-01 -4.7552825814756622e-01 0 0
2.827000000000e+11 0 0 -2.9389262614621320e-01 -4.0450849718749066e-01 -2.9389262614621320e-01 -4.0450849718749066e-01 0 0
2.828000000000e+11 0 0 -4.0450849718748649e-01 -2.9389262614621897e-01 -4.0450849718748649e-01 -2.9389262614621897e-01 0 0
2.829000000000e+11 0 0 -4.7552825814758160e-01 -1.5450849718745893e-01 -4.7552825814758160e-01 -1.5450849718745893e-01 0 0
2.830000000000e+11 0 0 -5.0000000000000000e-01 9.3166003830687098e-15 -5.0000000000000000e-01 9.3166003830687098e-15 0 0
2.831000000000e+11 0 0 -4.7552825814757582e-01 1.5450849718747667e-01 -4.7552825814757582e-01 1.5450849718747667e-01 0 0
2.832000000000e+11 0 0 -4.0450849718747556e-01 2.9389262614623402e-01 -4.0450849718747556e-01 2.9389262614623402e-01 0 0
2.833000000000e+11 0 0 -2.9389262614624412e-01 4.0450849718746823e-01 -2.9389262614624412e-01 4.0450849718746823e-01 0 0
2.834000000000e+11 0 0 -1.5450849718743445e-01 4.7552825814758953e-01 -1.5450849718743445e-01 4.7552825814758953e-01 0 0
2.835000000000e+11 0 0 -2.1800260476414359e-14 5.0000000000000000e-01 -2.1800260476414359e-14 5.0000000000000000e-01 0 0
2.836000000000e+11 0 0 1.5450849718744705e-01 4.7552825814758543e-01 1.5450849718744705e-01 4.7552825814758543e-01 0 0
2.837000000000e+11 0 0 2.9389262614625483e-01 4.0450849718746046e-01 2.9389262614625483e-01 4.0450849718746046e-01 0 0
2.838000000000e+11 0 0 4.0450849718748333e-01 2.9389262614622330e-01 4.0450849718748333e-01 2.9389262614622330e-01 0 0
2.839000000000e+11 0 0 4.7552825814757993e-01 1.5450849718746407e-01 4.7552825814757993e-01 1.5450849718746407e-01 0 0
2.840000000000e+11 0 0 5.0000000000000000e-01 -3.9262975249105901e-15 5.0000000000000000e-01 -3.9262975249105901e-15 0 0
2.841000000000e+11 0 0 4.7552825814757749e-01 -1.5450849718747153e-01 4.7552825814757749e-01 -1.5450849718747153e-01 0 0
2.842000000000e+11 0 0 4.0450849718744530e-01 -2.9389262614627565e-01 4.0450849718744530e-01 -2.9389262614627565e-01 0 0
2.843000000000e+11 0 0 2.9389262614624850e-01 -4.0450849718746507e-01 2.9389262614624850e-01 -4.0450849718746507e-01 0 0
2.844000000000e+11 0 0 1.5450849718749365e-01 -4.7552825814757033e-01 1.5450849718749365e-01 -4.7552825814757033e-01 0 0
2.845000000000e+11 0 0 -2.9652855526235537e-14 -5.0000000000000000e-01 -2.9652855526235537e-14 -5.0000000000000000e-01 0 0
2.846000000000e+11 0 0 -1.5450849718749599e-01 -4.7552825814756955e-01 -1.5450849718749599e-01 -4.7552825814756955e-01 0 0
2.847000000000e+11 0 0 -2.9389262614625050e-01 -4.0450849718746362e-01 -2.9389262614625050e-01 -4.0450849718746362e-01 0 0
2.848000000000e+11 0 0 -4.0450849718748016e-01 -2.9389262614622769e-01 -4.0450849718748016e-01 -2.9389262614622769e-01 0 0
2.849000000000e+11 0 0 -4.7552825814757826e-01 -1.5450849718746917e-01 -4.7552825814757826e-01 -1.5450849718746917e-01 0 0
2.850000000000e+11 0 0 -5.0000000000000000e-01 -1.4640053332475287e-15 -5.0000000000000000e-01 -1.4640053332475287e-15 0 0
2.851000000000e+11 0 0 -4.7552825814756161e-01 1.5450849718752047e-01 -4.7552825814756161e-01 1.5450849718752047e-01 0 0
2.852000000000e+11 0 0 -4.0450849718748189e-01 2.9389262614622530e-01 -4.0450849718748189e-01 2.9389262614622530e-01 0 0
2.853000000000e+11 0 0 -2.9389262614625283e-01 4.0450849718746185e-01 -2.9389262614625283e-01 4.0450849718746185e-01 0 0
2.854000000000e+11 0 0 -1.5450849718744472e-01 4.7552825814758620e-01 -1.5450849718744472e-01 4.7552825814758620e-01 0 0
2.855000000000e+11 0 0 2.4262552668077418e-14 5.0000000000000000e-01 2.4262552668077418e-14 5.0000000000000000e-01 0 0
2.856000000000e+11 0 0 1.5450849718749088e-01 4.7552825814757121e-01 1.5450849718749088e-01 4.7552825814757121e-01 0 0
2.857000000000e+11 0 0 2.9389262614624612e-01 4.0450849718746679e-01 2.9389262614624612e-01 4.0450849718746679e-01 0 0
2.858000000000e+11 0 0 4.0450849718747700e-01 2.9389262614623202e-01 4.0450849718747700e-01 2.9389262614623202e-01 0 0
2.859000000000e+11 0 0 4.7552825814759414e-01 1.5450849718742024e-01 4.7552825814759414e-01 1.5450849718742024e-01 0 0
2.860000000000e+11 0 0 5.0000000000000000e-01 6.8543081914056479e-15 5.0000000000000000e-01 6.8543081914056479e-15 0 0
2.861000000000e+11 0 0 4.7552825814758082e-01 -1.5450849718746126e-01 4.7552825814758082e-01 -1.5450849718746126e-01 0 0
2.862000000000e+11 0 0 4.0450849718745163e-01 -2.9389262614626693e-01 4.0450849718745163e-01 -2.9389262614626693e-01 0 0
2.863000000000e+11 0 0 2.9389262614621120e-01 -4.0450849718749210e-01 2.9389262614621120e-01 -4.0450849718749210e-01 0 0
2.864000000000e+11 0 0 1.5450849718750390e-01 -4.7552825814756700e-01 1.5450849718750390e-01 -4.7552825814756700e-01 0 0
2.865000000000e+11 0 0 -1.8872249809919299e-14 -5.0000000000000000e-01 -1.8872249809919299e-14 -5.0000000000000000e-01 0 0
2.866000000000e+11 0 0 -1.5450849718748574e-01 -4.7552825814757288e-01 -1.5450849718748574e-01 -4.7552825814757288e-01 0 0
2.867000000000e+11 0 0 -2.9389262614624179e-01 -4.0450849718746995e-01 -2.9389262614624179e-01 -4.0450849718746995e-01 0 0
2.868000000000e+11 0 0 -4.0450849718747384e-01 -2.9389262614623640e-01 -4.0450849718747384e-01 -2.9389262614623640e-01 0 0
2.869000000000e+11 0 0 -4.7552825814757493e-01 -1.5450849718747944e-01 -4.7552825814757493e-01 -1.5450849718747944e-01 0 0
2.870000000000e+11 0 0 -5.0000000000000000e-01 -1.2244611049563766e-14 -5.0000000000000000e-01 -1.2244611049563766e-14 0 0
2.871000000000e+11 0 0 -4.7552825814756494e-01 1.5450849718751020e-01 -4.7552825814756494e-01 1.5450849718751020e-01 0 0
2.872000000000e+11 0 0 -4.0450849718748821e-01 2.9389262614621658e-01 -4.0450849718748821e-01 2.9389262614621658e-01 0 0
2.873000000000e+11 0 0 -2.9389262614626155e-01 4.0450849718745552e-01 -2.9389262614626155e-01 4.0450849718745552e-01 0 0
2.874000000000e+11 0 0 -1.5450849718745496e-01 4.7552825814758287e-01 -1.5450849718745496e-01 4.7552825814758287e-01 0 0
2.875000000000e+11 0 0 1.3481946951761182e-14 5.0000000000000000e-01 1.3481946951761182e-14 5.0000000000000000e-01 0 0
2.876000000000e+11 0 0 1.5450849718753468e-01 4.7552825814755700e-01 1.5450849718753468e-01 4.7552825814755700e-01 0 0
2.877000000000e+11 0 0 2.9389262614623740e-01 4.0450849718747312e-01 2.9389262614623740e-01 4.0450849718747312e-01 0 0
2.878000000000e+11 0 0 4.0450849718747067e-01 2.9389262614624079e-01 4.0450849718747067e-01 2.9389262614624079e-01 0 0
2.879000000000e+11 0 0 4.7552825814759081e-01 1.5450849718743051e-01 4.7552825814759081e-01 1.5450849718743051e-01 0 0
2.880000000000e+11 0 0 5.0000000000000000e-01 -3.9208504953086128e-14 5.0000000000000000e-01 -3.9208504953086128e-14 0 0
2.881000000000e+11 0 0 4.7552825814758415e-01 -1.5450849718745102e-01 4.7552825814758415e-01 -1.5450849718745102e-01 0 0
2.882000000000e+11 0 0 4.0450849718745796e-01 -2.9389262614625822e-01 4.0450849718745796e-01 -2.9389262614625822e-01 0 0
2.883000000000e+11 0 0 2.9389262614621997e-01 -4.0450849718748577e-01 2.9389262614621997e-01 -4.0450849718748577e-01 0 0
2.884000000000e+11 0 0 1.5450849718746010e-01 -4.7552825814758121e-01 1.5450849718746010e-01 -4.7552825814758121e-01 0 0
2.885000000000e+11 0 0 -8.0916440936030614e-15 -5.0000000000000000e-01 -8.0916440936030614e-15 -5.0000000000000000e-01 0 0
2.886000000000e+11 0 0 -1.5450849718747550e-01 -4.7552825814757621e-01 -1.5450849718747550e-01 -4.7552825814757621e-01 0 0
2.887000000000e+11 0 0 -2.9389262614623302e-01 -4.0450849718747628e-01 -2.9389262614623302e-01 -4.0450849718747628e-01 0 0
2.888000000000e+11 0 0 -4.0450849718750093e-01 -2.9389262614619915e-01 -4.0450849718750093e-01 -2.9389262614619915e-01 0 0
2.889000000000e+11 0 0 -4.7552825814757160e-01 -1.5450849718748969e-01 -4.7552825814757160e-01 -1.5450849718748969e-01 0 0
2.890000000000e+11 0 0 -5.0000000000000000e-01 -2.3025216765880006e-14 -5.0000000000000000e-01 -2.3025216765880006e-14 0 0
2.891000000000e+11 0 0 -4.7552825814756827e-01 1.5450849718749995e-01 -4.7552825814756827e-01 1.5450849718749995e-01 0 0
2.892000000000e+11 0 0 -4.0450849718746112e-01 2.9389262614625383e-01 -4.0450849718746112e-01 2.9389262614625383e-01 0 0
2.893000000000e+11 0 0 -2.9389262614627032e-01 4.0450849718744919e-01 -2.9389262614627032e-01 4.0450849718744919e-01 0 0
2.894000000000e+11 0 0 -1.5450849718746523e-01 4.7552825814757954e-01 -1.5450849718746523e-01 4.7552825814757954e-01 0 0
2.895000000000e+11 0 0 2.7013412354449432e-15 5.0000000000000000e-01 2.7013412354449432e-15 5.0000000000000000e-01 0 0
2.896000000000e+11 0 0 1.5450849718752444e-01 4.7552825814756033e-01 1.5450849718752444e-01 4.7552825814756033e-01 0 0
2.897000000000e+11 0 0 2.9389262614622869e-01 4.0450849718747944e-01 2.9389262614622869e-01 4.0450849718747944e-01 0 0
2.898000000000e+11 0 0 4.0450849718746434e-01 2.9389262614624950e-01 4.0450849718746434e-01 2.9389262614624950e-01 0 0
2.899000000000e+11 0 0 4.7552825814758748e-01 1.5450849718744075e-01 4.7552825814758748e-01 1.5450849718744075e-01 0 0
2.900000000000e+11 0 0 5.0000000000000000e-01 -2.8427899236769890e-14 5.0000000000000000e-01 -2.8427899236769890e-14 0 0
2.901000000000e+11 0 0 4.7552825814758748e-01 -1.5450849718744078e-01 4.7552825814758748e-01 -1.5450849718744078e-01 0 0
2.902000000000e+11 0 0 4.0450849718746434e-01 -2.9389262614624950e-01 4.0450849718746434e-01 -2.9389262614624950e-01 0 0
2.903000000000e+11 0 0 2.9389262614622869e-01 -4.0450849718747944e-01 2.9389262614622869e-01 -4.0450849718747944e-01 0 0
2.904000000000e+11 0 0 1.5450849718747034e-01 -4.7552825814757788e-01 1.5450849718747034e-01 -4.7552825814757788e-01 0 0
2.905000000000e+11 0 0 -5.4154457238094838e-14 -5.0000000000000000e-01 -5.4154457238094838e-14 -5.0000000000000000e-01 0 0
2.906000000000e+11 0 0 -1.5450849718746523e-01 -4.7552825814757954e-01 -1.5450849718746523e-01 -4.7552825814757954e-01 0 0
2.907000000000e+11 0 0 -2.9389262614622430e-01 -4.0450849718748261e-01 -2.9389262614622430e-01 -4.0450849718748261e-01 0 0
2.908000000000e+11 0 0 -4.0450849718749460e-01 -2.9389262614620787e-01 -4.0450849718749460e-01 -2.9389262614620787e-01 0 0
2.909000000000e+11 0 0 -4.7552825814758581e-01 -1.5450849718744589e-01 -4.7552825814758581e-01 -1.5450849718744589e-01 0 0
2.910000000000e+11 0 0 -5.0000000000000000e-01 -3.3805822482196243e-14 -5.0000000000000000e-01 -3.3805822482196243e-14 0 0
2.911000000000e+11 0 0 -4.7552825814757160e-01 1.5450849718748971e-01 -4.7552825814757160e-01 1.5450849718748971e-01 0 0
2.912000000000e+11 0 0 -4.0450849718746751e-01 2.9389262614624512e-01 -4.0450849718746751e-01 2.9389262614624512e-01 0 0
2.913000000000e+11 0 0 -2.9389262614618705e-01 4.0450849718750970e-01 -2.9389262614618705e-01 4.0450849718750970e-01 0 0
2.914000000000e+11 0 0 -1.5450849718747547e-01 4.7552825814757621e-01 -1.5450849718747547e-01 4.7552825814757621e-01 0 0
2.915000000000e+11 0 0 -8.0792644808712955e-15 5.0000000000000000e-01 -8.0792644808712955e-15 5.0000000000000000e-01 0 0
2.916000000000e+11 0 0 1.5450849718751417e-01 4.7552825814756366e-01 1.5450849718751417e-01 4.7552825814756366e-01 0 0
2.917000000000e+11 0 0 2.9389262614626593e-01 4.0450849718745235e-01 2.9389262614626593e-01 4.0450849718745235e-01 0 0
2.918000000000e+11 0 0 4.0450849718745796e-01 2.9389262614625822e-01 4.0450849718745796e-01 2.9389262614625822e-01 0 0
2.919000000000e+11 0 0 4.7552825814758415e-01 1.5450849718745102e-01 4.7552825814758415e-01 1.5450849718745102e-01 0 0
2.920000000000e+11 0 0 5.0000000000000000e-01 -1.7647293520453652e-14 5.0000000000000000e-01 -1.7647293520453652e-14 0 0
2.921000000000e+11 0 0 4.7552825814757327e-01 -1.5450849718748458e-01 4.7552825814757327e-01 -1.5450849718748458e-01 0 0
2.922000000000e+11 0 0 4.0450849718747067e-01 -2.9389262614624079e-01 4.0450849718747067e-01 -2.9389262614624079e-01 0 0
2.923000000000e+11 0 0 2.9389262614623740e-01 -4.0450849718747312e-01 2.9389262614623740e-01 -4.0450849718747312e-01 0 0
2.924000000000e+11 0 0 1.5450849718748061e-01 -4.7552825814757455e-01 1.5450849718748061e-01 -4.7552825814757455e-01 0 0
2.925000000000e+11 0 0 -4.3373851521778600e-14 -5.0000000000000000e-01 -4.3373851521778600e-14 -5.0000000000000000e-01 0 0
2.926000000000e+11 0 0 -1.5450849718745499e-01 -4.7552825814758287e-01 -1.5450849718745499e-01 -4.7552825814758287e-01 0 0
2.927000000000e+11 0 0 -2.9389262614621559e-01 -4.0450849718748894e-01 -2.9389262614621559e-01 -4.0450849718748894e-01 0 0
2.928000000000e+11 0 0 -4.0450849718748821e-01 -2.9389262614621658e-01 -4.0450849718748821e-01 -2.9389262614621658e-01 0 0
2.929000000000e+11 0 0 -4.7552825814758248e-01 -1.5450849718745613e-01 -4.7552825814758248e-01 -1.5450849718745613e-01 0 0
2.930000000000e+11 0 0 -5.0000000000000000e-01 -4.4586428198512481e-14 -5.0000000000000000e-01 -4.4586428198512481e-14 0 0
2.931000000000e+11 0 0 -4.7552825814757493e-01 1.5450849718747944e-01 -4.7552825814757493e-01 1.5450849718747944e-01 0 0
2.932000000000e+11 0 0 -4.0450849718747384e-01 2.9389262614623640e-01 -4.0450849718747384e-01 2.9389262614623640e-01 0 0
2.933000000000e+11 0 0 -2.9389262614619577e-01 4.0450849718750337e-01 -2.9389262614619577e-01 4.0450849718750337e-01 0 0
2.934000000000e+11 0 0 -1.5450849718748572e-01 4.7552825814757288e-01 -1.5450849718748572e-01 4.7552825814757288e-01 0 0
2.935000000000e+11 0 0 -1.8859870197187533e-14 5.0000000000000000e-01 -1.8859870197187533e-14 5.0000000000000000e-01 0 0
2.936000000000e+11 0 0 1.5450849718750392e-01 4.7552825814756700e-01 1.5450849718750392e-01 4.7552825814756700e-01 0 0
2.937000000000e+11 0 0 2.9389262614625722e-01 4.0450849718745868e-01 2.9389262614625722e-01 4.0450849718745868e-01 0 0
2.938000000000e+11 0 0 4.0450849718748505e-01 2.9389262614622091e-01 4.0450849718748505e-01 2.9389262614622091e-01 0 0
2.939000000000e+11 0 0 4.7552825814758082e-01 1.5450849718746126e-01 4.7552825814758082e-01 1.5450849718746126e-01 0 0
2.940000000000e+11 0 0 5.0000000000000000e-01 -6.8666878041374145e-15 5.0000000000000000e-01 -6.8666878041374145e-15 0 0
2.941000000000e+11 0 0 4.7552825814757660e-01 -1.5450849718747434e-01 4.7552825814757660e-01 -1.5450849718747434e-01 0 0
2.942000000000e+11 0 0 4.0450849718744358e-01 -2.9389262614627804e-01 4.0450849718744358e-01 -2.9389262614627804e-01 0 0
2.943000000000e+11 0 0 2.9389262614624612e-01 -4.0450849718746679e-01 2.9389262614624612e-01 -4.0450849718746679e-01 0 0
2.944000000000e+11 0 0 1.5450849718749085e-01 -4.7552825814757121e-01 1.5450849718749085e-01 -4.7552825814757121e-01 0 0
2.945000000000e+11 0 0 -3.2593245805462362e-14 -5.0000000000000000e-01 -3.2593245805462362e-14 -5.0000000000000000e-01 0 0
2.946000000000e+11 0 0 -1.5450849718749879e-01 -4.7552825814756866e-01 -1.5450849718749879e-01 -4.7552825814756866e-01 0 0
2.947000000000e+11 0 0 -2.9389262614620687e-01 -4.0450849718749526e-01 -2.9389262614620687e-01 -4.0450849718749526e-01 0 0
2.948000000000e+11 0 0 -4.0450849718748189e-01 -2.9389262614622530e-01 -4.0450849718748189e-01 -2.9389262614622530e-01 0 0
2.949000000000e+11 0 0 -4.7552825814757915e-01 -1.5450849718746640e-01 -4.7552825814757915e-01 -1.5450849718746640e-01 0 0
2.950000000000e+11 0 0 -5.0000000000000000e-01 5.8319803806787310e-14 -5.0000000000000000e-01 5.8319803806787310e-14 0 0
2.951000000000e+11 0 0 -4.7552825814757826e-01 1.5450849718746920e-01 -4.7552825814757826e-01 1.5450849718746920e-01 0 0
2.952000000000e+11 0 0 -4.0450849718748016e-01 2.9389262614622769e-01 -4.0450849718748016e-01 2.9389262614622769e-01 0 0
2.953000000000e+11 0 0 -2.9389262614620448e-01 4.0450849718749704e-01 -2.9389262614620448e-01 4.0450849718749704e-01 0 0
2.954000000000e+11 0 0 -1.5450849718744192e-01 4.7552825814758709e-01 -1.5450849718744192e-01 4.7552825814758709e-01 0 0
2.955000000000e+11 0 0 -2.9640475913503771e-14 5.0000000000000000e-01 -2.9640475913503771e-14 5.0000000000000000e-01 0 0
2.956000000000e+11 0 0 1.5450849718749365e-01 4.7552825814757033e-01 1.5450849718749365e-01 4.7552825814757033e-01 0 0
2.957000000000e+11 0 0 2.9389262614624850e-01 4.0450849718746501e-01 2.9389262614624850e-01 4.0450849718746501e-01 0 0
2.958000000000e+11 0 0 4.0450849718747872e-01 2.9389262614622969e-01 4.0450849718747872e-01 2.9389262614622969e-01 0 0
2.959000000000e+11 0 0 4.7552825814757749e-01 1.5450849718747151e-01 4.7552825814757749e-01 1.5450849718747151e-01 0 0
2.960000000000e+11 0 0 5.0000000000000000e-01 3.9139179121788235e-15 5.0000000000000000e-01 3.9139179121788235e-15 0 0
2.961000000000e+11 0 0 4.7552825814757993e-01 -1.5450849718746407e-01 4.7552825814757993e-01 -1.5450849718746407e-01 0 0
2.962000000000e+11 0 0 4.0450849718744991e-01 -2.9389262614626932e-01 4.0450849718744991e-01 -2.9389262614626932e-01 0 0
2.963000000000e+11 0 0 2.9389262614625483e-01 -4.0450849718746046e-01 2.9389262614625483e-01 -4.0450849718746046e-01 0 0
2.964000000000e+11 0 0 1.5450849718750112e-01 -4.7552825814756788e-01 1.5450849718750112e-01 -4.7552825814756788e-01 0 0
2.965000000000e+11 0 0 -2.1812640089146124e-14 -5.0000000000000000e-01 -2.1812640089146124e-14 -5.0000000000000000e-01 0 0
2.966000000000e+11 0 0 -1.5450849718748855e-01 -4.7552825814757199e-01 -1.5450849718748855e-01 -4.7552825814757199e-01 0 0
2.967000000000e+11 0 0 -2.9389262614629014e-01 -4.0450849718743481e-01 -2.9389262614629014e-01 -4.0450849718743481e-01 0 0
2.968000000000e+11 0 0 -4.0450849718747556e-01 -2.9389262614623402e-01 -4.0450849718747556e-01 -2.9389262614623402e-01 0 0
2.969000000000e+11 0 0 -4.7552825814757582e-01 -1.5450849718747664e-01 -4.7552825814757582e-01 -1.5450849718747664e-01 0 0
2.970000000000e+11 0 0 -5.0000000000000000e-01 4.7539198090471072e-14 -5.0000000000000000e-01 4.7539198090471072e-14 0 0
2.971000000000e+11 0 0 -4.7552825814756400e-01 1.5450849718751300e-01 -4.7552825814756400e-01 1.5450849718751300e-01 0 0
2.972000000000e+11 0 0 -4.0450849718748649e-01 2.9389262614621897e-01 -4.0450849718748649e-01 2.9389262614621897e-01 0 0
2.973000000000e+11 0 0 -2.9389262614621320e-01 4.0450849718749071e-01 -2.9389262614621320e-01 4.0450849718749071e-01 0 0
2.974000000000e+11 0 0 -1.5450849718745219e-01 4.7552825814758376e-01 -1.5450849718745219e-01 4.7552825814758376e-01 0 0
2.975000000000e+11 0 0 1.6422337230988006e-14 5.0000000000000000e-01 1.6422337230988006e-14 5.0000000000000000e-01 0 0
2.976000000000e+11 0 0 1.5450849718748341e-01 4.7552825814757366e-01 1.5450849718748341e-01 4.7552825814757366e-01 0 0
2.977000000000e+11 0 0 2.9389262614623979e-01 4.0450849718747139e-01 2.9389262614623979e-01 4.0450849718747139e-01 0 0
2.978000000000e+11 0 0 4.0450849718747239e-01 2.9389262614623840e-01 4.0450849718747239e-01 2.9389262614623840e-01 0 0
2.979000000000e+11 0 0 4.7552825814759175e-01 1.5450849718742771e-01 4.7552825814759175e-01 1.5450849718742771e-01 0 0
2.980000000000e+11 0 0 5.0000000000000000e-01 1.4694523628495061e-14 5.0000000000000000e-01 1.4694523628495061e-14 0 0
2.981000000000e+11 0 0 4.7552825814758326e-01 -1.5450849718745382e-01 4.7552825814758326e-01 -1.5450849718745382e-01 0 0
2.982000000000e+11 0 0 4.0450849718745624e-01 -2.9389262614626060e-01 4.0450849718745624e-01 -2.9389262614626060e-01 0 0
2.983000000000e+11 0 0 2.9389262614621758e-01 -4.0450849718748749e-01 2.9389262614621758e-01 -4.0450849718748749e-01 0 0
2.984000000000e+11 0 0 1.5450849718751136e-01 -4.7552825814756455e-01 1.5450849718751136e-01 -4.7552825814756455e-01 0 0
2.985000000000e+11 0 0 -1.1032034372829887e-14 -5.0000000000000000e-01 -1.1032034372829887e-14 -5.0000000000000000e-01 0 0
2.986000000000e+11 0 0 -1.5450849718747828e-01 -4.7552825814757532e-01 -1.5450849718747828e-01 -4.7552825814757532e-01 0 0
2.987000000000e+11 0 0 -2.9389262614628142e-01 -4.0450849718744114e-01 -2.9389262614628142e-01 -4.0450849718744114e-01 0 0
2.988000000000e+11 0 0 -4.0450849718746923e-01 -2.9389262614624273e-01 -4.0450849718746923e-01 -2.9389262614624273e-01 0 0
2.989000000000e+11 0 0 -4.7552825814757249e-01 -1.5450849718748688e-01 -4.7552825814757249e-01 -1.5450849718748688e-01 0 0
2.990000000000e+11 0 0 -5.0000000000000000e-01 3.6758592374154835e-14 -5.0000000000000000e-01 3.6758592374154835e-14 0 0
2.991000000000e+11 0 0 -4.7552825814756733e-01 1.5450849718750276e-01 -4.7552825814756733e-01 1.5450849718750276e-01 0 0
2.992000000000e+11 0 0 -4.0450849718749282e-01 2.9389262614621026e-01 -4.0450849718749282e-01 2.9389262614621026e-01 0 0
2.993000000000e+11 0 0 -2.9389262614622191e-01 4.0450849718748433e-01 -2.9389262614622191e-01 4.0450849718748433e-01 0 0
2.994000000000e+11 0 0 -1.5450849718746243e-01 4.7552825814758043e-01 -1.5450849718746243e-01 4.7552825814758043e-01 0 0
2.995000000000e+11 0 0 5.6417315146717676e-15 5.0000000000000000e-01 5.6417315146717676e-15 5.0000000000000000e-01 0 0
2.996000000000e+11 0 0 1.5450849718752721e-01 4.7552825814755939e-01 1.5450849718752721e-01 4.7552825814755939e-01 0 0
2.997000000000e+11 0 0 2.9389262614623107e-01 4.0450849718747772e-01 2.9389262614623107e-01 4.0450849718747772e-01 0 0
2.998000000000e+11 0 0 4.0450849718746607e-01 2.9389262614624712e-01 4.0450849718746607e-01 2.9389262614624712e-01 0 0
2.999000000000e+11 0 0 4.7552825814758842e-01 1.5450849718743795e-01 4.7552825814758842e-01 1.5450849718743795e-01 0 0
3.000000000000e+11 0 0 5.0000000000000000e-01 -3.1368289515996716e-14 5.0000000000000000e-01 -3.1368289515996716e-14 0 0
3.001000000000e+11 0 0 4.7552825814758659e-01 -1.5450849718744356e-01 4.7552825814758659e-01 -1.5450849718744356e-01 0 0
3.002000000000e+11 0 0 4.0450849718746257e-01 -2.9389262614625189e-01 4.0450849718746257e-01 -2.9389262614625189e-01 0 0
3.003000000000e+11 0 0 2.9389262614622630e-01 -4.0450849718748116e-01 2.9389262614622630e-01 -4.0450849718748116e-01 0 0
3.004000000000e+11 0 0 1.5450849718741350e-01 -4.7552825814759636e-01 1.5450849718741350e-01 -4.7552825814759636e-01 0 0
3.005000000000e+11 0 0 -2.5142865651364838e-16 -5.0000000000000000e-01 -2.5142865651364838e-16 -5.0000000000000000e-01 0 0
3.006000000000e+11 0 0 -1.5450849718746804e-01 -4.7552825814757865e-01 -1.5450849718746804e-01 -4.7552825814757865e-01 0 0
3.007000000000e+11 0 0 -2.9389262614627271e-01 -4.0450849718744747e-01 -2.9389262614627271e-01 -4.0450849718744747e-01 0 0
3.008000000000e+11 0 0 -4.0450849718749632e-01 -2.9389262614620548e-01 -4.0450849718749632e-01 -2.9389262614620548e-01 0 0
3.009000000000e+11 0 0 -4.7552825814756916e-01 -1.5450849718749715e-01 -4.7552825814756916e-01 -1.5450849718749715e-01 0 0
3.010000000000e+11 0 0 -5.0000000000000000e-01 2.5977986657838597e-14 -5.0000000000000000e-01 2.5977986657838597e-14 0 0
3.011000000000e+11 0 0 -4.7552825814757066e-01 1.5450849718749249e-01 -4.7552825814757066e-01 1.5450849718749249e-01 0 0
3.012000000000e+11 0 0 -4.0450849718746573e-01 2.9389262614624750e-01 -4.0450849718746573e-01 2.9389262614624750e-01 0 0
3.013000000000e+11 0 0 -2.9389262614623063e-01 4.0450849718747800e-01 -2.9389262614623063e-01 4.0450849718747800e-01 0 0
3.014000000000e+11 0 0 -1.5450849718747267e-01 4.7552825814757710e-01 -1.5450849718747267e-01 4.7552825814757710e-01 0 0
3.015000000000e+11 0 0 -5.1388742016444703e-15 5.0000000000000000e-01 -5.1388742016444703e-15 5.0000000000000000e-01 0 0
3.016000000000e+11 0 0 1.5450849718751697e-01 4.7552825814756272e-01 1.5450849718751697e-01 4.7552825814756272e-01 0 0
3.017000000000e+11 0 0 2.9389262614622236e-01 4.0450849718748405e-01 2.9389262614622236e-01 4.0450849718748405e-01 0 0
3.018000000000e+11 0 0 4.0450849718745974e-01 2.9389262614625583e-01 4.0450849718745974e-01 2.9389262614625583e-01 0 0
3.019000000000e+11 0 0 4.7552825814758509e-01 1.5450849718744822e-01 4.7552825814758509e-01 1.5450849718744822e-01 0 0
3.020000000000e+11 0 0 5.0000000000000000e-01 -2.0587683799680478e-14 5.0000000000000000e-01 -2.0587683799680478e-14 0 0
3.021000000000e+11 0 0 4.7552825814758992e-01 -1.5450849718743331e-01 4.7552825814758992e-01 -1.5450849718743331e-01 0 0
3.022000000000e+11 0 0 4.0450849718746895e-01 -2.9389262614624317e-01 4.0450849718746895e-01 -2.9389262614624317e-01 0 0
3.023000000000e+11 0 0 2.9389262614623501e-01 -4.0450849718747484e-01 2.9389262614623501e-01 -4.0450849718747484e-01 0 0
3.024000000000e+11 0 0 1.5450849718742374e-01 -4.7552825814759303e-01 1.5450849718742374e-01 -4.7552825814759303e-01 0 0
3.025000000000e+11 0 0 -4.6314241801005426e-14 -5.0000000000000000e-01 -4.6314241801005426e-14 -5.0000000000000000e-01 0 0
3.026000000000e+11 0 0 -1.5450849718745777e-01 -4.7552825814758198e-01 -1.5450849718745777e-01 -4.7552825814758198e-01 0 0
3.027000000000e+11 0 0 -2.9389262614626399e-01 -4.0450849718745380e-01 -2.9389262614626399e-01 -4.0450849718745380e-01 0 0
3.028000000000e+11 0 0 -4.0450849718748993e-01 -2.9389262614621420e-01 -4.0450849718748993e-01 -2.9389262614621420e-01 0 0
3.029000000000e+11 0 0 -4.7552825814758343e-01 -1.5450849718745335e-01 -4.7552825814758343e-01 -1.5450849718745335e-01 0 0
3.030000000000e+11 0 0 -5.0000000000000000e-01 1.5197380941522359e-14 -5.0000000000000000e-01 1.5197380941522359e-14 0 0
3.031000000000e+11 0 0 -4.7552825814757399e-01 1.5450849718748225e-01 -4.7552825814757399e-01 1.5450849718748225e-01 0 0
3.032000000000e+11 0 0 -4.0450849718747212e-01 2.9389262614623879e-01 -4.0450849718747212e-01 2.9389262614623879e-01 0 0
3.033000000000e+11 0 0 -2.9389262614619338e-01 4.0450849718750509e-01 -2.9389262614619338e-01 4.0450849718750509e-01 0 0
3.034000000000e+11 0 0 -1.5450849718748294e-01 4.7552825814757377e-01 -1.5450849718748294e-01 4.7552825814757377e-01 0 0
3.035000000000e+11 0 0 -1.5919479917960708e-14 5.0000000000000000e-01 -1.5919479917960708e-14 5.0000000000000000e-01 0 0
3.036000000000e+11 0 0 1.5450849718750673e-01 4.7552825814756605e-01 1.5450849718750673e-01 4.7552825814756605e-01 0 0
3.037000000000e+11 0 0 2.9389262614625961e-01 4.0450849718745696e-01 2.9389262614625961e-01 4.0450849718745696e-01 0 0
3.038000000000e+11 0 0 4.0450849718745335e-01 2.9389262614626455e-01 4.0450849718745335e-01 2.9389262614626455e-01 0 0
3.039000000000e+11 0 0 4.7552825814758176e-01 1.5450849718745846e-01 4.7552825814758176e-01 1.5450849718745846e-01 0 0
3.040000000000e+11 0 0 5.0000000000000000e-01 -9.8070780833642397e-15 5.0000000000000000e-01 -9.8070780833642397e-15 0 0
3.041000000000e+11 0 0 4.7552825814757566e-01 -1.5450849718747711e-01 4.7552825814757566e-01 -1.5450849718747711e-01 0 0
3.042000000000e+11 0 0 4.0450849718747528e-01 -2.9389262614623440e-01 4.0450849718747528e-01 -2.9389262614623440e-01 0 0
3.043000000000e+11 0 0 2.9389262614624373e-01 -4.0450849718746851e-01 2.9389262614624373e-01 -4.0450849718746851e-01 0 0
3.044000000000e+11 0 0 1.5450849718743401e-01 -4.7552825814758970e-01 1.5450849718743401e-01 -4.7552825814758970e-01 0 0
3.045000000000e+11 0 0 -3.5533636084689188e-14 -5.0000000000000000e-01 -3.5533636084689188e-14 -5.0000000000000000e-01 0 0
3.046000000000e+11 0 0 -1.5450849718744752e-01 -4.7552825814758531e-01 -1.5450849718744752e-01 -4.7552825814758531e-01 0 0
3.047000000000e+11 0 0 -2.9389262614625522e-01 -4.0450849718746013e-01 -2.9389262614625522e-01 -4.0450849718746013e-01 0 0
3.048000000000e+11 0 0 -4.0450849718748361e-01 -2.9389262614622291e-01 -4.0450849718748361e-01 -2.9389262614622291e-01 0 0
3.049000000000e+11 0 0 -4.7552825814758010e-01 -1.5450849718746359e-01 -4.7552825814758010e-01 -1.5450849718746359e-01 0 0
3.050000000000e+11 0 0 -5.0000000000000000e-01 4.4167752252061199e-15 -5.0000000000000000e-01 4.4167752252061199e-15 0 0
3.051000000000e+11 0 0 -4.7552825814757732e-01 1.5450849718747200e-01 -4.7552825814757732e-01 1.5450849718747200e-01 0 0
3.052000000000e+11 0 0 -4.0450849718747844e-01 2.9389262614623007e-01 -4.0450849718747844e-01 2.9389262614623007e-01 0 0
3.053000000000e+11 0 0 -2.9389262614620210e-01 4.0450849718749876e-01 -2.9389262614620210e-01 4.0450849718749876e-01 0 0
3.054000000000e+11 0 0 -1.5450849718743911e-01 4.7552825814758803e-01 -1.5450849718743911e-01 4.7552825814758803e-01 0 0
3.055000000000e+11 0 0 -2.6700085634276946e-14 5.0000000000000000e-01 -2.6700085634276946e-14 5.0000000000000000e-01 0 0
3.056000000000e+11 0 0 1.5450849718749646e-01 4.7552825814756938e-01 1.5450849718749646e-01 4.7552825814756938e-01 0 0
3.057000000000e+11 0 0 2.9389262614625089e-01 4.0450849718746329e-01 2.9389262614625089e-01 4.0450849718746329e-01 0 0
3.058000000000e+11 0 0 4.0450849718748044e-01 2.9389262614622730e-01 4.0450849718748044e-01 2.9389262614622730e-01 0 0
3.059000000000e+11 0 0 4.7552825814757843e-01 1.5450849718746873e-01 4.7552825814757843e-01 1.5450849718746873e-01 0 0
3.060000000000e+11 0 0 5.0000000000000000e-01 9.7352763295199905e-16 5.0000000000000000e-01 9.7352763295199905e-16 0 0
3.061000000000e+11 0 0 4.7552825814756144e-01 -1.5450849718752094e-01 4.7552825814756144e-01 -1.5450849718752094e-01 0 0
3.062000000000e+11 0 0 4.0450849718744819e-01 -2.9389262614627171e-01 4.0450849718744819e-01 -2.9389262614627171e-01 0 0
3.063000000000e+11 0 0 2.9389262614625244e-01 -4.0450849718746218e-01 2.9389262614625244e-01 -4.0450849718746218e-01 0 0
3.064000000000e+11 0 0 1.5450849718744425e-01 -4.7552825814758637e-01 1.5450849718744425e-01 -4.7552825814758637e-01 0 0
3.065000000000e+11 0 0 -2.4753030368372950e-14 -5.0000000000000000e-01 -2.4753030368372950e-14 -5.0000000000000000e-01 0 0
3.066000000000e+11 0 0 -1.5450849718749132e-01 -4.7552825814757105e-01 -1.5450849718749132e-01 -4.7552825814757105e-01 0 0
3.067000000000e+11 0 0 -2.9389262614624651e-01 -4.0450849718746651e-01 -2.9389262614624651e-01 -4.0450849718746651e-01 0 0
3.068000000000e+11 0 0 -4.0450849718747728e-01 -2.9389262614623163e-01 -4.0450849718747728e-01 -2.9389262614623163e-01 0 0
3.069000000000e+11 0 0 -4.7552825814757677e-01 -1.5450849718747384e-01 -4.7552825814757677e-01 -1.5450849718747384e-01 0 0
3.070000000000e+11 0 0 -5.0000000000000000e-01 5.0479588369697898e-14 -5.0000000000000000e-01 5.0479588369697898e-14 0 0
3.071000000000e+11 0 0 -4.7552825814758065e-01 1.5450849718746174e-01 -4.7552825814758065e-01 1.5450849718746174e-01 0 0
3.072000000000e+11 0 0 -4.0450849718748477e-01 2.9389262614622136e-01 -4.0450849718748477e-01 2.9389262614622136e-01 0 0
3.073000000000e+11 0 0 -2.9389262614621081e-01 4.0450849718749243e-01 -2.9389262614621081e-01 4.0450849718749243e-01 0 0
3.074000000000e+11 0 0 -1.5450849718744938e-01 4.7552825814758470e-01 -1.5450849718744938e-01 4.7552825814758470e-01 0 0
3.075000000000e+11 0 0 -3.7480691350593184e-14 5.0000000000000000e-01 -3.7480691350593184e-14 5.0000000000000000e-01 0 0
3.076000000000e+11 0 0 1.5450849718748622e-01 4.7552825814757271e-01 1.5450849718748622e-01 4.7552825814757271e-01 0 0
3.077000000000e+11 0 0 2.9389262614624218e-01 4.0450849718746967e-01 2.9389262614624218e-01 4.0450849718746967e-01 0 0
3.078000000000e+11 0 0 4.0450849718747411e-01 2.9389262614623601e-01 4.0450849718747411e-01 2.9389262614623601e-01 0 0
3.079000000000e+11 0 0 4.7552825814757510e-01 1.5450849718747897e-01 4.7552825814757510e-01 1.5450849718747897e-01 0 0
3.080000000000e+11 0 0 5.0000000000000000e-01 1.1754133349268238e-14 5.0000000000000000e-01 1.1754133349268238e-14 0 0
3.081000000000e+11 0 0 4.7552825814756478e-01 -1.5450849718751067e-01 4.7552825814756478e-01 -1.5450849718751067e-01 0 0
3.082000000000e+11 0 0 4.0450849718745452e-01 -2.9389262614626299e-01 4.0450849718745452e-01 -2.9389262614626299e-01 0 0
3.083000000000e+11 0 0 2.9389262614621520e-01 -4.0450849718748921e-01 2.9389262614621520e-01 -4.0450849718748921e-01 0 0
3.084000000000e+11 0 0 1.5450849718745449e-01 -4.7552825814758304e-01 1.5450849718745449e-01 -4.7552825814758304e-01 0 0
3.085000000000e+11 0 0 -1.3972424652056710e-14 -5.0000000000000000e-01 -1.3972424652056710e-14 -5.0000000000000000e-01 0 0
3.086000000000e+11 0 0 -1.5450849718748108e-01 -4.7552825814757438e-01 -1.5450849718748108e-01 -4.7552825814757438e-01 0 0
3.087000000000e+11 0 0 -2.9389262614628381e-01 -4.0450849718743942e-01 -2.9389262614628381e-01 -4.0450849718743942e-01 0 0
3.088000000000e+11 0 0 -4.0450849718747095e-01 -2.9389262614624034e-01 -4.0450849718747095e-01 -2.9389262614624034e-01 0 0
3.089000000000e+11 0 0 -4.7552825814757343e-01 -1.5450849718748411e-01 -4.7552825814757343e-01 -1.5450849718748411e-01 0 0
3.090000000000e+11 0 0 -5.0000000000000000e-01 3.9698982653381660e-14 -5.0000000000000000e-01 3.9698982653381660e-14 0 0
3.091000000000e+11 0 0 -4.7552825814756644e-01 1.5450849718750556e-01 -4.7552825814756644e-01 1.5450849718750556e-01 0 0
3.092000000000e+11 0 0 -4.0450849718749110e-01 2.9389262614621264e-01 -4.0450849718749110e-01 2.9389262614621264e-01 0 0
3.093000000000e+11 0 0 -2.9389262614621953e-01 4.0450849718748605e-01 -2.9389262614621953e-01 4.0450849718748605e-01 0 0
3.094000000000e+11 0 0 -1.5450849718745963e-01 4.7552825814758137e-01 -1.5450849718745963e-01 4.7552825814758137e-01 0 0
3.095000000000e+11 0 0 8.5821217938985912e-15 5.0000000000000000e-01 8.5821217938985912e-15 5.0000000000000000e-01 0 0
3.096000000000e+11 0 0 1.5450849718747595e-01 4.7552825814757604e-01 1.5450849718747595e-01 4.7552825814757604e-01 0 0
3.097000000000e+11 0 0 2.9389262614623346e-01 4.0450849718747600e-01 2.9389262614623346e-01 4.0450849718747600e-01 0 0
3.098000000000e+11 0 0 4.0450849718746779e-01 2.9389262614624473e-01 4.0450849718746779e-01 2.9389262614624473e-01 0 0
3.099000000000e+11 0 0 4.7552825814758931e-01 1.5450849718743517e-01 4.7552825814758931e-01 1.5450849718743517e-01 0 0
3.100000000000e+11 0 0 5.0000000000000000e-01 2.2534739065584474e-14 5.0000000000000000e-01 2.2534739065584474e-14 0 0
3.101000000000e+11 0 0 4.7552825814756811e-01 -1.5450849718750043e-01 4.7552825814756811e-01 -1.5450849718750043e-01 0 0
3.102000000000e+11 0 0 4.0450849718746085e-01 -2.9389262614625422e-01 4.0450849718746085e-01 -2.9389262614625422e-01 0 0
3.103000000000e+11 0 0 2.9389262614622391e-01 -4.0450849718748288e-01 2.9389262614622391e-01 -4.0450849718748288e-01 0 0
3.104000000000e+11 0 0 1.5450849718746476e-01 -4.7552825814757971e-01 1.5450849718746476e-01 -4.7552825814757971e-01 0 0
3.105000000000e+11 0 0 -3.1918189357404726e-15 -5.0000000000000000e-01 -3.1918189357404726e-15 -5.0000000000000000e-01 0 0
3.106000000000e+11 0 0 -1.5450849718747084e-01 -4.7552825814757771e-01 -1.5450849718747084e-01 -4.7552825814757771e-01 0 0
3.107000000000e+11 0 0 -2.9389262614627504e-01 -4.0450849718744575e-01 -2.9389262614627504e-01 -4.0450849718744575e-01 0 0
3.108000000000e+11 0 0 -4.0450849718746462e-01 -2.9389262614624906e-01 -4.0450849718746462e-01 -2.9389262614624906e-01 0 0
3.109000000000e+11 0 0 -4.7552825814757010e-01 -1.5450849718749435e-01 -4.7552825814757010e-01 -1.5450849718749435e-01 0 0
3.110000000000e+11 0 0 -5.0000000000000000e-01 2.8918376937065422e-14 -5.0000000000000000e-01 2.8918376937065422e-14 0 0
3.111000000000e+11 0 0 -4.7552825814756977e-01 1.5450849718749529e-01 -4.7552825814756977e-01 1.5450849718749529e-01 0 0
3.112000000000e+11 0 0 -4.0450849718746401e-01 2.9389262614624989e-01 -4.0450849718746401e-01 2.9389262614624989e-01 0 0
3.113000000000e+11 0 0 -2.9389262614622830e-01 4.0450849718747972e-01 -2.9389262614622830e-01 4.0450849718747972e-01 0 0
3.114000000000e+11 0 0 -1.5450849718746990e-01 4.7552825814757804e-01 -1.5450849718746990e-01 4.7552825814757804e-01 0 0
3.115000000000e+11 0 0 -2.1984839224176463e-15 5.0000000000000000e-01 -2.1984839224176463e-15 5.0000000000000000e-01 0 0
3.116000000000e+11 0 0 1.5450849718751977e-01 4.7552825814756183e-01 1.5450849718751977e-01 4.7552825814756183e-01 0 0
3.117000000000e+11 0 0 2.9389262614622469e-01 4.0450849718748233e-01 2.9389262614622469e-01 4.0450849718748233e-01 0 0
3.118000000000e+11 0 0 4.0450849718746146e-01 2.9389262614625344e-01 4.0450849718746146e-01 2.9389262614625344e-01 0 0
3.119000000000e+11 0 0 4.7552825814758598e-01 1.5450849718744541e-01 4.7552825814758598e-01 1.5450849718744541e-01 0 0
3.120000000000e+11 0 0 5.0000000000000000e-01 -2.3528074078907303e-14 5.0000000000000000e-01 -2.3528074078907303e-14 0 0
3.121000000000e+11 0 0 4.7552825814757144e-01 -1.5450849718749016e-01 4.7552825814757144e-01 -1.5450849718749016e-01 0 0
3.122000000000e+11 0 0 4.0450849718746718e-01 -2.9389262614624551e-01 4.0450849718746718e-01 -2.9389262614624551e-01 0 0
3.123000000000e+11 0 0 2.9389262614623263e-01 -4.0450849718747656e-01 2.9389262614623263e-01 -4.0450849718747656e-01 0 0
3.124000000000e+11 0 0 1.5450849718742096e-01 -4.7552825814759392e-01 1.5450849718742096e-01 -4.7552825814759392e-01 0 0
3.125000000000e+11 0 0 7.5887867805757657e-15 -5.0000000000000000e-01 7.5887867805757657e-15 -5.0000000000000000e-01 0 0
3.126000000000e+11 0 0 -1.5450849718746057e-01 -4.7552825814758104e-01 -1.5450849718746057e-01 -4.7552825814758104e-01 0 0
3.127000000000e+11 0 0 -2.9389262614626632e-01 -4.0450849718745208e-01 -2.9389262614626632e-01 -4.0450849718745208e-01 0 0
3.128000000000e+11 0 0 -4.0450849718749171e-01 -2.9389262614621181e-01 -4.0450849718749171e-01 -2.9389262614621181e-01 0 0
3.129000000000e+11 0 0 -4.7552825814756677e-01 -1.5450849718750462e-01 -4.7552825814756677e-01 -1.5450849718750462e-01 0 0
3.130000000000e+11 0 0 -5.0000000000000000e-01 1.8137771220749184e-14 -5.0000000000000000e-01 1.8137771220749184e-14 0 0
3.131000000000e+11 0 0 -4.7552825814757310e-01 1.5450849718748505e-01 -4.7552825814757310e-01 1.5450849718748505e-01 0 0
3.132000000000e+11 0 0 -4.0450849718747039e-01 2.9389262614624118e-01 -4.0450849718747039e-01 2.9389262614624118e-01 0 0
3.133000000000e+11 0 0 -2.9389262614623701e-01 4.0450849718747339e-01 -2.9389262614623701e-01 4.0450849718747339e-01 0 0
3.134000000000e+11 0 0 -1.5450849718748014e-01 4.7552825814757471e-01 -1.5450849718748014e-01 4.7552825814757471e-01 0 0
3.135000000000e+11 0 0 -1.2979089638733885e-14 5.0000000000000000e-01 -1.2979089638733885e-14 5.0000000000000000e-01 0 0
3.136000000000e+11 0 0 1.5450849718750950e-01 4.7552825814756516e-01 1.5450849718750950e-01 4.7552825814756516e-01 0 0
3.137000000000e+11 0 0 2.9389262614621597e-01 4.0450849718748866e-01 2.9389262614621597e-01 4.0450849718748866e-01 0 0
3.138000000000e+11 0 0 4.0450849718748855e-01 2.9389262614621620e-01 4.0450849718748855e-01 2.9389262614621620e-01 0 0
3.139000000000e+11 0 0 4.7552825814758265e-01 1.5450849718745566e-01 4.7552825814758265e-01 1.5450849718745566e-01 0 0
3.140000000000e+11 0 0 5.0000000000000000e-01 -1.2747468362591063e-14 5.0000000000000000e-01 -1.2747468362591063e-14 0 0
3.141000000000e+11 0 0 4.7552825814755723e-01 -1.5450849718753398e-01 4.7552825814755723e-01 -1.5450849718753398e-01 0 0
3.142000000000e+11 0 0 4.0450849718747356e-01 -2.9389262614623679e-01 4.0450849718747356e-01 -2.9389262614623679e-01 0 0
3.143000000000e+11 0 0 2.9389262614624134e-01 -4.0450849718747023e-01 2.9389262614624134e-01 -4.0450849718747023e-01 0 0
3.144000000000e+11 0 0 1.5450849718743120e-01 -4.7552825814759059e-01 1.5450849718743120e-01 -4.7552825814759059e-01 0 0
3.145000000000e+11 0 0 -3.8474026363916013e-14 -5.0000000000000000e-01 -3.8474026363916013e-14 -5.0000000000000000e-01 0 0
3.146000000000e+11 0 0 -1.5450849718745033e-01 -4.7552825814758437e-01 -1.5450849718745033e-01 -4.7552825814758437e-01 0 0
3.147000000000e+11 0 0 -2.9389262614625761e-01 -4.0450849718745840e-01 -2.9389262614625761e-01 -4.0450849718745840e-01 0 0
3.148000000000e+11 0 0 -4.0450849718748533e-01 -2.9389262614622053e-01 -4.0450849718748533e-01 -2.9389262614622053e-01 0 0
3.149000000000e+11 0 0 -4.7552825814758098e-01 -1.5450849718746079e-01 -4.7552825814758098e-01 -1.5450849718746079e-01 0 0
3.150000000000e+11 0 0 -5.0000000000000000e-01 7.3571655044329443e-15 -5.0000000000000000e-01 7.3571655044329443e-15 0 0
3.151000000000e+11 0 0 -4.7552825814757643e-01 1.5450849718747478e-01 -4.7552825814757643e-01 1.5450849718747478e-01 0 0
3.152000000000e+11 0 0 -4.0450849718747672e-01 2.9389262614623246e-01 -4.0450849718747672e-01 2.9389262614623246e-01 0 0
3.153000000000e+11 0 0 -2.9389262614619971e-01 4.0450849718750048e-01 -2.9389262614619971e-01 4.0450849718750048e-01 0 0
3.154000000000e+11 0 0 -1.5450849718749038e-01 4.7552825814757138e-01 -1.5450849718749038e-01 4.7552825814757138e-01 0 0
3.155000000000e+11 0 0 -2.3759695355050121e-14 5.0000000000000000e-01 -2.3759695355050121e-14 5.0000000000000000e-01 0 0
3.156000000000e+11 0 0 1.5450849718749926e-01 4.7552825814756849e-01 1.5450849718749926e-01 4.7552825814756849e-01 0 0
3.157000000000e+11 0 0 2.9389262614625328e-01 4.0450849718746157e-01 2.9389262614625328e-01 4.0450849718746157e-01 0 0
3.158000000000e+11 0 0 4.0450849718748216e-01 2.9389262614622491e-01 4.0450849718748216e-01 2.9389262614622491e-01 0 0
3.159000000000e+11 0 0 4.7552825814757932e-01 1.5450849718746593e-01 4.7552825814757932e-01 1.5450849718746593e-01 0 0
3.160000000000e+11 0 0 5.0000000000000000e-01 -1.9668626462748253e-15 5.0000000000000000e-01 -1.9668626462748253e-15 0 0
3.161000000000e+11 0 0 4.7552825814756056e-01 -1.5450849718752371e-01 4.7552825814756056e-01 -1.5450849718752371e-01 0 0
3.162000000000e+11 0 0 4.0450849718747989e-01 -2.9389262614622808e-01 4.0450849718747989e-01 -2.9389262614622808e-01 0 0
3.163000000000e+11 0 0 2.9389262614625006e-01 -4.0450849718746390e-01 2.9389262614625006e-01 -4.0450849718746390e-01 0 0
3.164000000000e+11 0 0 1.5450849718744145e-01 -4.7552825814758726e-01 1.5450849718744145e-01 -4.7552825814758726e-01 0 0
3.165000000000e+11 0 0 -2.7693420647599772e-14 -5.0000000000000000e-01 -2.7693420647599772e-14 -5.0000000000000000e-01 0 0
3.166000000000e+11 0 0 -1.5450849718744006e-01 -4.7552825814758770e-01 -1.5450849718744006e-01 -4.7552825814758770e-01 0 0
3.167000000000e+11 0 0 -2.9389262614624889e-01 -4.0450849718746473e-01 -2.9389262614624889e-01 -4.0450849718746473e-01 0 0
3.168000000000e+11 0 0 -4.0450849718747900e-01 -2.9389262614622924e-01 -4.0450849718747900e-01 -2.9389262614622924e-01 0 0
3.169000000000e+11 0 0 -4.7552825814757765e-01 -1.5450849718747106e-01 -4.7552825814757765e-01 -1.5450849718747106e-01 0 0
3.170000000000e+11 0 0 -5.0000000000000000e-01 5.3419978648924723e-14 -5.0000000000000000e-01 5.3419978648924723e-14 0 0
3.171000000000e+11 0 0 -4.7552825814757976e-01 1.5450849718746454e-01 -4.7552825814757976e-01 1.5450849718746454e-01 0 0
3.172000000000e+11 0 0 -4.0450849718748305e-01 2.9389262614622375e-01 -4.0450849718748305e-01 2.9389262614622375e-01 0 0
3.173000000000e+11 0 0 -2.9389262614620842e-01 4.0450849718749415e-01 -2.9389262614620842e-01 4.0450849718749415e-01 0 0
3.174000000000e+11 0 0 -1.5450849718744658e-01 4.7552825814758559e-01 -1.5450849718744658e-01 4.7552825814758559e-01 0 0
3.175000000000e+11 0 0 -3.4540301071366359e-14 5.0000000000000000e-01 -3.4540301071366359e-14 5.0000000000000000e-01 0 0
3.176000000000e+11 0 0 1.5450849718748899e-01 4.7552825814757183e-01 1.5450849718748899e-01 4.7552825814757183e-01 0 0
3.177000000000e+11 0 0 2.9389262614624456e-01 4.0450849718746790e-01 2.9389262614624456e-01 4.0450849718746790e-01 0 0
3.178000000000e+11 0 0 4.0450849718750925e-01 2.9389262614618766e-01 4.0450849718750925e-01 2.9389262614618766e-01 0 0
3.179000000000e+11 0 0 4.7552825814757599e-01 1.5450849718747617e-01 4.7552825814757599e-01 1.5450849718747617e-01 0 0
3.180000000000e+11 0 0 5.0000000000000000e-01 8.8137430700414126e-15 5.0000000000000000e-01 8.8137430700414126e-15 0 0
3.181000000000e+11 0 0 4.7552825814756389e-01 -1.5450849718751347e-01 4.7552825814756389e-01 -1.5450849718751347e-01 0 0
3.182000000000e+11 0 0 4.0450849718745280e-01 -2.9389262614626532e-01 4.0450849718745280e-01 -2.9389262614626532e-01 0 0
3.183000000000e+11 0 0 2.9389262614625877e-01 -4.0450849718745757e-01 2.9389262614625877e-01 -4.0450849718745757e-01 0 0
3.184000000000e+11 0 0 1.5450849718745172e-01 -4.7552825814758393e-01 1.5450849718745172e-01 -4.7552825814758393e-01 0 0
3.185000000000e+11 0 0 -1.6912814931283534e-14 -5.0000000000000000e-01 -1.6912814931283534e-14 -5.0000000000000000e-01 0 0
3.186000000000e+11 0 0 -1.5450849718748388e-01 -4.7552825814757349e-01 -1.5450849718748388e-01 -4.7552825814757349e-01 0 0
3.187000000000e+11 0 0 -2.9389262614624018e-01 -4.0450849718747106e-01 -2.9389262614624018e-01 -4.0450849718747106e-01 0 0
3.188000000000e+11 0 0 -4.0450849718747267e-01 -2.9389262614623801e-01 -4.0450849718747267e-01 -2.9389262614623801e-01 0 0
3.189000000000e+11 0 0 -4.7552825814757432e-01 -1.5450849718748130e-01 -4.7552825814757432e-01 -1.5450849718748130e-01 0 0
3.190000000000e+11 0 0 -5.0000000000000000e-01 4.2639372932608485e-14 -5.0000000000000000e-01 4.2639372932608485e-14 0 0
3.191000000000e+11 0 0 -4.7552825814758309e-01 1.5450849718745430e-01 -4.7552825814758309e-01 1.5450849718745430e-01 0 0
3.192000000000e+11 0 0 -4.0450849718748938e-01 2.9389262614621503e-01 -4.0450849718748938e-01 2.9389262614621503e-01 0 0
3.193000000000e+11 0 0 -2.9389262614621720e-01 4.0450849718748777e-01 -2.9389262614621720e-01 4.0450849718748777e-01 0 0
3.194000000000e+11 0 0 -1.5450849718745682e-01 4.7552825814758226e-01 -1.5450849718745682e-01 4.7552825814758226e-01 0 0
3.195000000000e+11 0 0 -4.5320906787682597e-14 5.0000000000000000e-01 -4.5320906787682597e-14 5.0000000000000000e-01 0 0
3.196000000000e+11 0 0 1.5450849718747875e-01 4.7552825814757516e-01 1.5450849718747875e-01 4.7552825814757516e-01 0 0
3.197000000000e+11 0 0 2.9389262614623579e-01 4.0450849718747428e-01 2.9389262614623579e-01 4.0450849718747428e-01 0 0
3.198000000000e+11 0 0 4.0450849718750292e-01 2.9389262614619638e-01 4.0450849718750292e-01 2.9389262614619638e-01 0 0
3.199000000000e+11 0 0 4.7552825814759020e-01 1.5450849718743237e-01 4.7552825814759020e-01 1.5450849718743237e-01 0 0
3.200000000000e+11 0 0 5.0000000000000000e-01 1.9594348786357652e-14 5.0000000000000000e-01 1.9594348786357652e-14 0 0
3.201000000000e+11 0 0 4.7552825814756722e-01 -1.5450849718750323e-01 4.7552825814756722e-01 -1.5450849718750323e-01 0 0
3.202000000000e+11 0 0 4.0450849718745913e-01 -2.9389262614625661e-01 4.0450849718745913e-01 -2.9389262614625661e-01 0 0
3.203000000000e+11 0 0 2.9389262614622153e-01 -4.0450849718748461e-01 2.9389262614622153e-01 -4.0450849718748461e-01 0 0
3.204000000000e+11 0 0 1.5450849718746196e-01 -4.7552825814758060e-01 1.5450849718746196e-01 -4.7552825814758060e-01 0 0
3.205000000000e+11 0 0 -6.1322092149672974e-15 -5.0000000000000000e-01 -6.1322092149672974e-15 -5.0000000000000000e-01 0 0
3.206000000000e+11 0 0 -1.5450849718747361e-01 -4.7552825814757682e-01 -1.5450849718747361e-01 -4.7552825814757682e-01 0 0
3.207000000000e+11 0 0 -2.9389262614627742e-01 -4.0450849718744403e-01 -2.9389262614627742e-01 -4.0450849718744403e-01 0 0
3.208000000000e+11 0 0 -4.0450849718746634e-01 -2.9389262614624673e-01 -4.0450849718746634e-01 -2.9389262614624673e-01 0 0
3.209000000000e+11 0 0 -4.7552825814757099e-01 -1.5450849718749154e-01 -4.7552825814757099e-01 -1.5450849718749154e-01 0 0
3.210000000000e+11 0 0 -5.0000000000000000e-01 3.1858767216292247e-14 -5.0000000000000000e-01 3.1858767216292247e-14 0 0
3.211000000000e+11 0 0 -4.7552825814756888e-01 1.5450849718749810e-01 -4.7552825814756888e-01 1.5450849718749810e-01 0 0
3.212000000000e+11 0 0 -4.0450849718749571e-01 2.9389262614620626e-01 -4.0450849718749571e-01 2.9389262614620626e-01 0 0
3.213000000000e+11 0 0 -2.9389262614622591e-01 4.0450849718748144e-01 -2.9389262614622591e-01 4.0450849718748144e-01 0 0
3.214000000000e+11 0 0 -1.5450849718746709e-01 4.7552825814757893e-01 -1.5450849718746709e-01 4.7552825814757893e-01 0 0
3.215000000000e+11 0 0 5.7585325217617189e-14 5.0000000000000000e-01 5.7585325217617189e-14 5.0000000000000000e-01 0 0
3.216000000000e+11 0 0 1.5450849718746851e-01 4.7552825814757849e-01 1.5450849718746851e-01 4.7552825814757849e-01 0 0
3.217000000000e+11 0 0 2.9389262614622708e-01 4.0450849718748061e-01 2.9389262614622708e-01 4.0450849718748061e-01 0 0
3.218000000000e+11 0 0 4.0450849718749660e-01 2.9389262614620509e-01 4.0450849718749660e-01 2.9389262614620509e-01 0 0
3.219000000000e+11 0 0 4.7552825814758687e-01 1.5450849718744261e-01 4.7552825814758687e-01 1.5450849718744261e-01 0 0
3.220000000000e+11 0 0 5.0000000000000000e-01 3.0374954502673887e-14 5.0000000000000000e-01 3.0374954502673887e-14 0 0
3.221000000000e+11 0 0 4.7552825814757055e-01 -1.5450849718749296e-01 4.7552825814757055e-01 -1.5450849718749296e-01 0 0
3.222000000000e+11 0 0 4.0450849718746545e-01 -2.9389262614624789e-01 4.0450849718746545e-01 -2.9389262614624789e-01 0 0
3.223000000000e+11 0 0 2.9389262614623024e-01 -4.0450849718747828e-01 2.9389262614623024e-01 -4.0450849718747828e-01 0 0
3.224000000000e+11 0 0 1.5450849718747223e-01 -4.7552825814757727e-01 1.5450849718747223e-01 -4.7552825814757727e-01 0 0
3.225000000000e+11 0 0 4.6483965013489413e-15 -5.0000000000000000e-01 4.6483965013489413e-15 -5.0000000000000000e-01 0 0
3.226000000000e+11 0 0 -1.5450849718746337e-01 -4.7552825814758015e-01 -1.5450849718746337e-01 -4.7552825814758015e-01 0 0
3.227000000000e+11 0 0 -2.9389262614626871e-01 -4.0450849718745036e-01 -2.9389262614626871e-01 -4.0450849718745036e-01 0 0
3.228000000000e+11 0 0 -4.0450849718749343e-01 -2.9389262614620942e-01 -4.0450849718749343e-01 -2.9389262614620942e-01 0 0
3.229000000000e+11 0 0 -4.7552825814756766e-01 -1.5450849718750181e-01 -4.7552825814756766e-01 -1.5450849718750181e-01 0 0
3.230000000000e+11 0 0 -5.0000000000000000e-01 2.1078161499976006e-14 -5.0000000000000000e-01 2.1078161499976006e-14 0 0
3.231000000000e+11 0 0 -4.7552825814757221e-01 1.5450849718748785e-01 -4.7552825814757221e-01 1.5450849718748785e-01 0 0
3.232000000000e+11 0 0 -4.0450849718743520e-01 2.9389262614628953e-01 -4.0450849718743520e-01 2.9389262614628953e-01 0 0
3.233000000000e+11 0 0 -2.9389262614623463e-01 4.0450849718747511e-01 -2.9389262614623463e-01 4.0450849718747511e-01 0 0
3.234000000000e+11 0 0 -1.5450849718747733e-01 4.7552825814757560e-01 -1.5450849718747733e-01 4.7552825814757560e-01 0 0
3.235000000000e+11 0 0 4.6804719501300957e-14 5.0000000000000000e-01 4.6804719501300957e-14 5.0000000000000000e-01 0 0
3.236000000000e+11 0 0 1.5450849718751231e-01 4.7552825814756422e-01 1.5450849718751231e-01 4.7552825814756422e-01 0 0
3.237000000000e+11 0 0 2.9389262614621836e-01 4.0450849718748694e-01 2.9389262614621836e-01 4.0450849718748694e-01 0 0
3.238000000000e+11 0 0 4.0450849718749027e-01 2.9389262614621381e-01 4.0450849718749027e-01 2.9389262614621381e-01 0 0
3.239000000000e+11 0 0 4.7552825814758354e-01 1.5450849718745288e-01 4.7552825814758354e-01 1.5450849718745288e-01 0 0
3.240000000000e+11 0 0 5.0000000000000000e-01 -1.5687858641817887e-14 5.0000000000000000e-01 -1.5687858641817887e-14 0 0
3.241000000000e+11 0 0 4.7552825814757388e-01 -1.5450849718748272e-01 4.7552825814757388e-01 -1.5450849718748272e-01 0 0
3.242000000000e+11 0 0 4.0450849718747178e-01 -2.9389262614623918e-01 4.0450849718747178e-01 -2.9389262614623918e-01 0 0
3.243000000000e+11 0 0 2.9389262614623896e-01 -4.0450849718747195e-01 2.9389262614623896e-01 -4.0450849718747195e-01 0 0
3.244000000000e+11 0 0 1.5450849718742840e-01 -4.7552825814759153e-01 1.5450849718742840e-01 -4.7552825814759153e-01 0 0
3.245000000000e+11 0 0 1.5429002217665180e-14 -5.0000000000000000e-01 1.5429002217665180e-14 -5.0000000000000000e-01 0 0
3.246000000000e+11 0 0 -1.5450849718745313e-01 -4.7552825814758348e-01 -1.5450849718745313e-01 -4.7552825814758348e-01 0 0
3.247000000000e+11 0 0 -2.9389262614625999e-01 -4.0450849718745668e-01 -2.9389262614625999e-01 -4.0450849718745668e-01 0 0
3.248000000000e+11 0 0 -4.0450849718748710e-01 -2.9389262614621814e-01 -4.0450849718748710e-01 -2.9389262614621814e-01 0 0
3.249000000000e+11 0 0 -4.7552825814756433e-01 -1.5450849718751206e-01 -4.7552825814756433e-01 -1.5450849718751206e-01 0 0
3.250000000000e+11 0 0 -5.0000000000000000e-01 1.0297555783659770e-14 -5.0000000000000000e-01 1.0297555783659770e-14 0 0
3.251000000000e+11 0 0 -4.7552825814757554e-01 1.5450849718747758e-01 -4.7552825814757554e-01 1.5450849718747758e-01 0 0
3.252000000000e+11 0 0 -4.0450849718744158e-01 2.9389262614628081e-01 -4.0450849718744158e-01 2.9389262614628081e-01 0 0
3.253000000000e+11 0 0 -2.9389262614624334e-01 4.0450849718746879e-01 -2.9389262614624334e-01 4.0450849718746879e-01 0 0
3.254000000000e+11 0 0 -1.5450849718748760e-01 4.7552825814757227e-01 -1.5450849718748760e-01 4.7552825814757227e-01 0 0
3.255000000000e+11 0 0 3.6024113784984719e-14 5.0000000000000000e-01 3.6024113784984719e-14 5.0000000000000000e-01 0 0
3.256000000000e+11 0 0 1.5450849718750206e-01 4.7552825814756755e-01 1.5450849718750206e-01 4.7552825814756755e-01 0 0
3.257000000000e+11 0 0 2.9389262614625566e-01 4.0450849718745985e-01 2.9389262614625566e-01 4.0450849718745985e-01 0 0
3.258000000000e+11 0 0 4.0450849718748394e-01 2.9389262614622252e-01 4.0450849718748394e-01 2.9389262614622252e-01 0 0
3.259000000000e+11 0 0 4.7552825814758021e-01 1.5450849718746312e-01 4.7552825814758021e-01 1.5450849718746312e-01 0 0
3.260000000000e+11 0 0 5.0000000000000000e-01 -6.1750671786309667e-14 5.0000000000000000e-01 -6.1750671786309667e-14 0 0
3.261000000000e+11 0 0 4.7552825814755961e-01 -1.5450849718752652e-01 4.7552825814755961e-01 -1.5450849718752652e-01 0 0
3.262000000000e+11 0 0 4.0450849718744475e-01 -2.9389262614627643e-01 4.0450849718744475e-01 -2.9389262614627643e-01 0 0
3.263000000000e+11 0 0 2.9389262614620171e-01 -4.0450849718749904e-01 2.9389262614620171e-01 -4.0450849718749904e-01 0 0
3.264000000000e+11 0 0 1.5450849718743867e-01 -4.7552825814758820e-01 1.5450849718743867e-01 -4.7552825814758820e-01 0 0
3.265000000000e+11 0 0 -3.0633810926826600e-14 -5.0000000000000000e-01 -3.0633810926826600e-14 -5.0000000000000000e-01 0 0
3.266000000000e+11 0 0 -1.5450849718749693e-01 -4.7552825814756922e-01 -1.5450849718749693e-01 -4.7552825814756922e-01 0 0
3.267000000000e+11 0 0 -2.9389262614625128e-01 -4.0450849718746301e-01 -2.9389262614625128e-01 -4.0450849718746301e-01 0 0
3.268000000000e+11 0 0 -4.0450849718748072e-01 -2.9389262614622691e-01 -4.0450849718748072e-01 -2.9389262614622691e-01 0 0
3.269000000000e+11 0 0 -4.7552825814757854e-01 -1.5450849718746826e-01 -4.7552825814757854e-01 -1.5450849718746826e-01 0 0
3.270000000000e+11 0 0 -5.0000000000000000e-01 -4.8304993265646932e-16 -5.0000000000000000e-01 -4.8304993265646932e-16 0 0
3.271000000000e+11 0 0 -4.7552825814757888e-01 1.5450849718746734e-01 -4.7552825814757888e-01 1.5450849718746734e-01 0 0
3.272000000000e+11 0 0 -4.0450849718748133e-01 2.9389262614622608e-01 -4.0450849718748133e-01 2.9389262614622608e-01 0 0
3.273000000000e+11 0 0 -2.9389262614625206e-01 4.0450849718746246e-01 -2.9389262614625206e-01 4.0450849718746246e-01 0 0
3.274000000000e+11 0 0 -1.5450849718749785e-01 4.7552825814756894e-01 -1.5450849718749785e-01 4.7552825814756894e-01 0 0
3.275000000000e+11 0 0 -3.1599910792139534e-14 5.0000000000000000e-01 -3.1599910792139534e-14 5.0000000000000000e-01 0 0
3.276000000000e+11 0 0 1.5450849718743773e-01 4.7552825814758848e-01 1.5450849718743773e-01 4.7552825814758848e-01 0 0
3.277000000000e+11 0 0 2.9389262614629291e-01 4.0450849718743276e-01 2.9389262614629291e-01 4.0450849718743276e-01 0 0
3.278000000000e+11 0 0 4.0450849718744419e-01 2.9389262614627726e-01 4.0450849718744419e-01 2.9389262614627726e-01 0 0
3.279000000000e+11 0 0 4.7552825814759447e-01 1.5450849718741932e-01 4.7552825814759447e-01 1.5450849718741932e-01 0 0
3.280000000000e+11 0 0 5.0000000000000000e-01 -5.0970066069993429e-14 5.0000000000000000e-01 -5.0970066069993429e-14 0 0
3.281000000000e+11 0 0 4.7552825814756294e-01 -1.5450849718751627e-01 4.7552825814756294e-01 -1.5450849718751627e-01 0 0
3.282000000000e+11 0 0 4.0450849718745108e-01 -2.9389262614626771e-01 4.0450849718745108e-01 -2.9389262614626771e-01 0 0
3.283000000000e+11 0 0 2.9389262614621042e-01 -4.0450849718749271e-01 2.9389262614621042e-01 -4.0450849718749271e-01 0 0
3.284000000000e+11 0 0 1.5450849718744891e-01 -4.7552825814758487e-01 1.5450849718744891e-01 -4.7552825814758487e-01 0 0
3.285000000000e+11 0 0 -1.9853205210510359e-14 -5.0000000000000000e-01 -1.9853205210510359e-14 -5.0000000000000000e-01 0 0
3.286000000000e+11 0 0 -1.5450849718748669e-01 -4.7552825814757260e-01 -1.5450849718748669e-01 -4.7552825814757260e-01 0 0
3.287000000000e+11 0 0 -2.9389262614624256e-01 -4.0450849718746934e-01 -2.9389262614624256e-01 -4.0450849718746934e-01 0 0
3.288000000000e+11 0 0 -4.0450849718747439e-01 -2.9389262614623562e-01 -4.0450849718747439e-01 -2.9389262614623562e-01 0 0
3.289000000000e+11 0 0 -4.7552825814757521e-01 -1.5450849718747850e-01 -4.7552825814757521e-01 -1.5450849718747850e-01 0 0
3.290000000000e+11 0 0 -5.0000000000000000e-01 -1.1263655648972708e-14 -5.0000000000000000e-01 -1.1263655648972708e-14 0 0
3.291000000000e+11 0 0 -4.7552825814758221e-01 1.5450849718745707e-01 -4.7552825814758221e-01 1.5450849718745707e-01 0 0
3.292000000000e+11 0 0 -4.0450849718748766e-01 2.9389262614621736e-01 -4.0450849718748766e-01 2.9389262614621736e-01 0 0
3.293000000000e+11 0 0 -2.9389262614626077e-01 4.0450849718745613e-01 -2.9389262614626077e-01 4.0450849718745613e-01 0 0
3.294000000000e+11 0 0 -1.5450849718739998e-01 4.7552825814760075e-01 -1.5450849718739998e-01 4.7552825814760075e-01 0 0
3.295000000000e+11 0 0 -4.2380516508455772e-14 5.0000000000000000e-01 -4.2380516508455772e-14 5.0000000000000000e-01 0 0
3.296000000000e+11 0 0 1.5450849718742748e-01 4.7552825814759181e-01 1.5450849718742748e-01 4.7552825814759181e-01 0 0
3.297000000000e+11 0 0 2.9389262614628420e-01 4.0450849718743909e-01 2.9389262614628420e-01 4.0450849718743909e-01 0 0
3.298000000000e+11 0 0 4.0450849718750465e-01 2.9389262614619399e-01 4.0450849718750465e-01 2.9389262614619399e-01 0 0
3.299000000000e+11 0 0 4.7552825814759114e-01 1.5450849718742957e-01 4.7552825814759114e-01 1.5450849718742957e-01 0 0
3.300000000000e+11 0 0 5.0000000000000000e-01 -4.0189460353677191e-14 5.0000000000000000e-01 -4.0189460353677191e-14 0 0
3.301000000000e+11 0 0 4.7552825814756627e-01 -1.5450849718750601e-01 4.7552825814756627e-01 -1.5450849718750601e-01 0 0
3.302000000000e+11 0 0 4.0450849718745741e-01 -2.9389262614625900e-01 4.0450849718745741e-01 -2.9389262614625900e-01 0 0
3.303000000000e+11 0 0 2.9389262614621914e-01 -4.0450849718748638e-01 2.9389262614621914e-01 -4.0450849718748638e-01 0 0
3.304000000000e+11 0 0 1.5450849718745915e-01 -4.7552825814758154e-01 1.5450849718745915e-01 -4.7552825814758154e-01 0 0
3.305000000000e+11 0 0 -9.0725994941941210e-15 -5.0000000000000000e-01 -9.0725994941941210e-15 -5.0000000000000000e-01 0 0
3.306000000000e+11 0 0 -1.5450849718747642e-01 -4.7552825814757593e-01 -1.5450849718747642e-01 -4.7552825814757593e-01 0 0
3.307000000000e+11 0 0 -2.9389262614623385e-01 -4.0450849718747567e-01 -2.9389262614623385e-01 -4.0450849718747567e-01 0 0
3.308000000000e+11 0 0 -4.0450849718746806e-01 -2.9389262614624434e-01 -4.0450849718746806e-01 -2.9389262614624434e-01 0 0
3.309000000000e+11 0 0 -4.7552825814757188e-01 -1.5450849718748877e-01 -4.7552825814757188e-01 -1.5450849718748877e-01 0 0
3.310000000000e+11 0 0 -5.0000000000000000e-01 -2.2044261365288946e-14 -5.0000000000000000e-01 -2.2044261365288946e-14 0 0
3.311000000000e+11 0 0 -4.7552825814758554e-01 1.5450849718744683e-01 -4.7552825814758554e-01 1.5450849718744683e-01 0 0
3.312000000000e+11 0 0 -4.0450849718749399e-01 2.9389262614620865e-01 -4.0450849718749399e-01 2.9389262614620865e-01 0 0
3.313000000000e+11 0 0 -2.9389262614626949e-01 4.0450849718744980e-01 -2.9389262614626949e-01 4.0450849718744980e-01 0 0
3.314000000000e+11 0 0 -1.5450849718741022e-01 4.7552825814759742e-01 -1.5450849718741022e-01 4.7552825814759742e-01 0 0
3.315000000000e+11 0 0 -5.3161122224772010e-14 5.0000000000000000e-01 -5.3161122224772010e-14 5.0000000000000000e-01 0 0
3.316000000000e+11 0 0 1.5450849718741724e-01 4.7552825814759514e-01 1.5450849718741724e-01 4.7552825814759514e-01 0 0
3.317000000000e+11 0 0 2.9389262614627548e-01 4.0450849718744547e-01 2.9389262614627548e-01 4.0450849718744547e-01 0 0
3.318000000000e+11 0 0 4.0450849718749832e-01 2.9389262614620271e-01 4.0450849718749832e-01 2.9389262614620271e-01 0 0
3.319000000000e+11 0 0 4.7552825814758781e-01 1.5450849718743984e-01 4.7552825814758781e-01 1.5450849718743984e-01 0 0
3.320000000000e+11 0 0 5.0000000000000000e-01 -2.9408854637360953e-14 5.0000000000000000e-01 -2.9408854637360953e-14 0 0
3.321000000000e+11 0 0 4.7552825814756960e-01 -1.5450849718749576e-01 4.7552825814756960e-01 -1.5450849718749576e-01 0 0
3.322000000000e+11 0 0 4.0450849718746373e-01 -2.9389262614625028e-01 4.0450849718746373e-01 -2.9389262614625028e-01 0 0
3.323000000000e+11 0 0 2.9389262614622785e-01 -4.0450849718748005e-01 2.9389262614622785e-01 -4.0450849718748005e-01 0 0
3.324000000000e+11 0 0 1.5450849718746942e-01 -4.7552825814757821e-01 1.5450849718746942e-01 -4.7552825814757821e-01 0 0
3.325000000000e+11 0 0 1.7080062221221167e-15 -5.0000000000000000e-01 1.7080062221221167e-15 -5.0000000000000000e-01 0 0
3.326000000000e+11 0 0 -1.5450849718746618e-01 -4.7552825814757921e-01 -1.5450849718746618e-01 -4.7552825814757921e-01 0 0
3.327000000000e+11 0 0 -2.9389262614622513e-01 -4.0450849718748205e-01 -2.9389262614622513e-01 -4.0450849718748205e-01 0 0
3.328000000000e+11 0 0 -4.0450849718746174e-01 -2.9389262614625306e-01 -4.0450849718746174e-01 -2.9389262614625306e-01 0 0
3.329000000000e+11 0 0 -4.7552825814756855e-01 -1.5450849718749901e-01 -4.7552825814756855e-01 -1.5450849718749901e-01 0 0
3.330000000000e+11 0 0 -5.0000000000000000e-01 -3.2824867081605181e-14 -5.0000000000000000e-01 -3.2824867081605181e-14 0 0
3.331000000000e+11 0 0 -4.7552825814755373e-01 1.5450849718754470e-01 -4.7552825814755373e-01 1.5450849718754470e-01 0 0
3.332000000000e+11 0 0 -4.0450849718750032e-01 2.9389262614619993e-01 -4.0450849718750032e-01 2.9389262614619993e-01 0 0
3.333000000000e+11 0 0 -2.9389262614627820e-01 4.0450849718744342e-01 -2.9389262614627820e-01 4.0450849718744342e-01 0 0
3.334000000000e+11 0 0 -1.5450849718742049e-01 4.7552825814759409e-01 -1.5450849718742049e-01 4.7552825814759409e-01 0 0
3.335000000000e+11 0 0 4.9745109780527782e-14 5.0000000000000000e-01 4.9745109780527782e-14 5.0000000000000000e-01 0 0
3.336000000000e+11 0 0 1.5450849718740697e-01 4.7552825814759847e-01 1.5450849718740697e-01 4.7552825814759847e-01 0 0
3.337000000000e+11 0 0 2.9389262614626677e-01 4.0450849718745180e-01 2.9389262614626677e-01 4.0450849718745180e-01 0 0
3.338000000000e+11 0 0 4.0450849718749199e-01 2.9389262614621142e-01 4.0450849718749199e-01 2.9389262614621142e-01 0 0
3.339000000000e+11 0 0 4.7552825814758448e-01 1.5450849718745008e-01 4.7552825814758448e-01 1.5450849718745008e-01 0 0
3.340000000000e+11 0 0 5.0000000000000000e-01 -1.8628248921044712e-14 5.0000000000000000e-01 -1.8628248921044712e-14 0 0
3.341000000000e+11 0 0 4.7552825814757294e-01 -1.5450849718748552e-01 4.7552825814757294e-01 -1.5450849718748552e-01 0 0
3.342000000000e+11 0 0 4.0450849718747006e-01 -2.9389262614624156e-01 4.0450849718747006e-01 -2.9389262614624156e-01 0 0
3.343000000000e+11 0 0 2.9389262614623657e-01 -4.0450849718747367e-01 2.9389262614623657e-01 -4.0450849718747367e-01 0 0
3.344000000000e+11 0 0 1.5450849718747967e-01 -4.7552825814757488e-01 1.5450849718747967e-01 -4.7552825814757488e-01 0 0
3.345000000000e+11 0 0 1.2488611938438355e-14 -5.0000000000000000e-01 1.2488611938438355e-14 -5.0000000000000000e-01 0 0
3.346000000000e+11 0 0 -1.5450849718745591e-01 -4.7552825814758259e-01 -1.5450849718745591e-01 -4.7552825814758259e-01 0 0
3.347000000000e+11 0 0 -2.9389262614621636e-01 -4.0450849718748838e-01 -2.9389262614621636e-01 -4.0450849718748838e-01 0 0
3.348000000000e+11 0 0 -4.0450849718752224e-01 -2.9389262614616979e-01 -4.0450849718752224e-01 -2.9389262614616979e-01 0 0
3.349000000000e+11 0 0 -4.7552825814756522e-01 -1.5450849718750925e-01 -4.7552825814756522e-01 -1.5450849718750925e-01 0 0
3.350000000000e+11 0 0 -5.0000000000000000e-01 -4.3605472797921425e-14 -5.0000000000000000e-01 -4.3605472797921425e-14 0 0
3.351000000000e+11 0 0 -4.7552825814755706e-01 1.5450849718753445e-01 -4.7552825814755706e-01 1.5450849718753445e-01 0 0
3.352000000000e+11 0 0 -4.0450849718743981e-01 2.9389262614628320e-01 -4.0450849718743981e-01 2.9389262614628320e-01 0 0
3.353000000000e+11 0 0 -2.9389262614628697e-01 4.0450849718743709e-01 -2.9389262614628697e-01 4.0450849718743709e-01 0 0
3.354000000000e+11 0 0 -1.5450849718743073e-01 4.7552825814759075e-01 -1.5450849718743073e-01 4.7552825814759075e-01 0 0
3.355000000000e+11 0 0 3.8964504064211538e-14 5.0000000000000000e-01 3.8964504064211538e-14 5.0000000000000000e-01 0 0
3.356000000000e+11 0 0 1.5450849718750484e-01 4.7552825814756666e-01 1.5450849718750484e-01 4.7552825814756666e-01 0 0
3.357000000000e+11 0 0 2.9389262614625800e-01 4.0450849718745813e-01 2.9389262614625800e-01 4.0450849718745813e-01 0 0
3.358000000000e+11 0 0 4.0450849718748566e-01 2.9389262614622014e-01 4.0450849718748566e-01 2.9389262614622014e-01 0 0
3.359000000000e+11 0 0 4.7552825814758115e-01 1.5450849718746032e-01 4.7552825814758115e-01 1.5450849718746032e-01 0 0
3.360000000000e+11 0 0 5.0000000000000000e-01 -7.8476432047284741e-15 5.0000000000000000e-01 -7.8476432047284741e-15 0 0
3.361000000000e+11 0 0 4.7552825814757627e-01 -1.5450849718747525e-01 4.7552825814757627e-01 -1.5450849718747525e-01 0 0
3.362000000000e+11 0 0 4.0450849718747639e-01 -2.9389262614623285e-01 4.0450849718747639e-01 -2.9389262614623285e-01 0 0
3.363000000000e+11 0 0 2.9389262614624534e-01 -4.0450849718746734e-01 2.9389262614624534e-01 -4.0450849718746734e-01 0 0
3.364000000000e+11 0 0 1.5450849718748993e-01 -4.7552825814757155e-01 1.5450849718748993e-01 -4.7552825814757155e-01 0 0
3.365000000000e+11 0 0 2.3269217654754593e-14 -5.0000000000000000e-01 2.3269217654754593e-14 -5.0000000000000000e-01 0 0
3.366000000000e+11 0 0 -1.5450849718744566e-01 -4.7552825814758592e-01 -1.5450849718744566e-01 -4.7552825814758592e-01 0 0
3.367000000000e+11 0 0 -2.9389262614620765e-01 -4.0450849718749471e-01 -2.9389262614620765e-01 -4.0450849718749471e-01 0 0
3.368000000000e+11 0 0 -4.0450849718751591e-01 -2.9389262614617850e-01 -4.0450849718751591e-01 -2.9389262614617850e-01 0 0
3.369000000000e+11 0 0 -4.7552825814756189e-01 -1.5450849718751952e-01 -4.7552825814756189e-01 -1.5450849718751952e-01 0 0
3.370000000000e+11 0 0 -5.0000000000000000e-01 -5.4386078514237663e-14 -5.0000000000000000e-01 -5.4386078514237663e-14 0 0
3.371000000000e+11 0 0 -4.7552825814756039e-01 1.5450849718752419e-01 -4.7552825814756039e-01 1.5450849718752419e-01 0 0
3.372000000000e+11 0 0 -4.0450849718744619e-01 2.9389262614627448e-01 -4.0450849718744619e-01 2.9389262614627448e-01 0 0
3.373000000000e+11 0 0 -2.9389262614629569e-01 4.0450849718743076e-01 -2.9389262614629569e-01 4.0450849718743076e-01 0 0
3.374000000000e+11 0 0 -1.5450849718744100e-01 4.7552825814758742e-01 -1.5450849718744100e-01 4.7552825814758742e-01 0 0
3.375000000000e+11 0 0 2.8183898347895303e-14 5.0000000000000000e-01 2.8183898347895303e-14 5.0000000000000000e-01 0 0
3.376000000000e+11 0 0 1.5450849718749460e-01 4.7552825814756999e-01 1.5450849718749460e-01 4.7552825814756999e-01 0 0
3.377000000000e+11 0 0 2.9389262614624928e-01 4.0450849718746446e-01 2.9389262614624928e-01 4.0450849718746446e-01 0 0
3.378000000000e+11 0 0 4.0450849718747928e-01 2.9389262614622885e-01 4.0450849718747928e-01 2.9389262614622885e-01 0 0
3.379000000000e+11 0 0 4.7552825814757782e-01 1.5450849718747059e-01 4.7552825814757782e-01 1.5450849718747059e-01 0 0
3.380000000000e+11 0 0 5.0000000000000000e-01 2.9329625115877642e-15 5.0000000000000000e-01 2.9329625115877642e-15 0 0
3.381000000000e+11 0 0 4.7552825814757960e-01 -1.5450849718746501e-01 4.7552825814757960e-01 -1.5450849718746501e-01 0 0
3.382000000000e+11 0 0 4.0450849718748277e-01 -2.9389262614622413e-01 4.0450849718748277e-01 -2.9389262614622413e-01 0 0
3.383000000000e+11 0 0 2.9389262614625405e-01 -4.0450849718746101e-01 2.9389262614625405e-01 -4.0450849718746101e-01 0 0
3.384000000000e+11 0 0 1.5450849718750018e-01 -4.7552825814756816e-01 1.5450849718750018e-01 -4.7552825814756816e-01 0 0
3.385000000000e+11 0 0 -7.9637014350545196e-14 -5.0000000000000000e-01 -7.9637014350545196e-14 -5.0000000000000000e-01 0 0
3.386000000000e+11 0 0 -1.5450849718743542e-01 -4.7552825814758926e-01 -1.5450849718743542e-01 -4.7552825814758926e-01 0 0
3.387000000000e+11 0 0 -2.9389262614619893e-01 -4.0450849718750104e-01 -2.9389262614619893e-01 -4.0450849718750104e-01 0 0
3.388000000000e+11 0 0 -4.0450849718750953e-01 -2.9389262614618722e-01 -4.0450849718750953e-01 -2.9389262614618722e-01 0 0
3.389000000000e+11 0 0 -4.7552825814759370e-01 -1.5450849718742166e-01 -4.7552825814759370e-01 -1.5450849718742166e-01 0 0
3.390000000000e+11 0 0 -5.0000000000000000e-01 -6.5166684230553894e-14 -5.0000000000000000e-01 -6.5166684230553894e-14 0 0
3.391000000000e+11 0 0 -4.7552825814756372e-01 1.5450849718751394e-01 -4.7552825814756372e-01 1.5450849718751394e-01 0 0
3.392000000000e+11 0 0 -4.0450849718745252e-01 2.9389262614626577e-01 -4.0450849718745252e-01 2.9389262614626577e-01 0 0
3.393000000000e+11 0 0 -2.9389262614621242e-01 4.0450849718749127e-01 -2.9389262614621242e-01 4.0450849718749127e-01 0 0
3.394000000000e+11 0 0 -1.5450849718745124e-01 4.7552825814758409e-01 -1.5450849718745124e-01 4.7552825814758409e-01 0 0
3.395000000000e+11 0 0 1.7403292631579065e-14 5.0000000000000000e-01 1.7403292631579065e-14 5.0000000000000000e-01 0 0
3.396000000000e+11 0 0 1.5450849718748436e-01 4.7552825814757332e-01 1.5450849718748436e-01 4.7552825814757332e-01 0 0
3.397000000000e+11 0 0 2.9389262614624057e-01 4.0450849718747078e-01 2.9389262614624057e-01 4.0450849718747078e-01 0 0
3.398000000000e+11 0 0 4.0450849718747295e-01 2.9389262614623757e-01 4.0450849718747295e-01 2.9389262614623757e-01 0 0
3.399000000000e+11 0 0 4.7552825814757449e-01 1.5450849718748083e-01 4.7552825814757449e-01 1.5450849718748083e-01 0 0
3.400000000000e+11 0 0 5.0000000000000000e-01 1.3713568227904002e-14 5.0000000000000000e-01 1.3713568227904002e-14 0 0
3.401000000000e+11 0 0 4.7552825814758293e-01 -1.5450849718745474e-01 4.7552825814758293e-01 -1.5450849718745474e-01 0 0
3.402000000000e+11 0 0 4.0450849718748910e-01 -2.9389262614621542e-01 4.0450849718748910e-01 -2.9389262614621542e-01 0 0
3.403000000000e+11 0 0 2.9389262614626277e-01 -4.0450849718745469e-01 2.9389262614626277e-01 -4.0450849718745469e-01 0 0
3.404000000000e+11 0 0 1.5450849718751042e-01 -4.7552825814756483e-01 1.5450849718751042e-01 -4.7552825814756483e-01 0 0
3.405000000000e+11 0 0 -6.8856408634228958e-14 -5.0000000000000000e-01 -6.8856408634228958e-14 -5.0000000000000000e-01 0 0
3.406000000000e+11 0 0 -1.5450849718753329e-01 -4.7552825814755745e-01 -1.5450849718753329e-01 -4.7552825814755745e-01 0 0
3.407000000000e+11 0 0 -2.9389262614619022e-01 -4.0450849718750737e-01 -2.9389262614619022e-01 -4.0450849718750737e-01 0 0
3.408000000000e+11 0 0 -4.0450849718750320e-01 -2.9389262614619593e-01 -4.0450849718750320e-01 -2.9389262614619593e-01 0 0
3.409000000000e+11 0 0 -4.7552825814759037e-01 -1.5450849718743190e-01 -4.7552825814759037e-01 -1.5450849718743190e-01 0 0
3.410000000000e+11 0 0 -5.0000000000000000e-01 3.7739547774745891e-14 -5.0000000000000000e-01 3.7739547774745891e-14 0 0
3.411000000000e+11 0 0 -4.7552825814756705e-01 1.5450849718750367e-01 -4.7552825814756705e-01 1.5450849718750367e-01 0 0
3.412000000000e+11 0 0 -4.0450849718745885e-01 2.9389262614625705e-01 -4.0450849718745885e-01 2.9389262614625705e-01 0 0
3.413000000000e+11 0 0 -2.9389262614622114e-01 4.0450849718748494e-01 -2.9389262614622114e-01 4.0450849718748494e-01 0 0
3.414000000000e+11 0 0 -1.5450849718746149e-01 4.7552825814758076e-01 -1.5450849718746149e-01 4.7552825814758076e-01 0 0
3.415000000000e+11 0 0 6.6226869152628265e-15 5.0000000000000000e-01 6.6226869152628265e-15 5.0000000000000000e-01 0 0
3.416000000000e+11 0 0 1.5450849718747409e-01 4.7552825814757665e-01 1.5450849718747409e-01 4.7552825814757665e-01 0 0
3.417000000000e+11 0 0 2.9389262614623185e-01 4.0450849718747717e-01 2.9389262614623185e-01 4.0450849718747717e-01 0 0
3.418000000000e+11 0 0 4.0450849718746662e-01 2.9389262614624628e-01 4.0450849718746662e-01 2.9389262614624628e-01 0 0
3.419000000000e+11 0 0 4.7552825814757116e-01 1.5450849718749110e-01 4.7552825814757116e-01 1.5450849718749110e-01 0 0
3.420000000000e+11 0 0 5.0000000000000000e-01 2.4494173944220240e-14 5.0000000000000000e-01 2.4494173944220240e-14 0 0
3.421000000000e+11 0 0 4.7552825814758626e-01 -1.5450849718744450e-01 4.7552825814758626e-01 -1.5450849718744450e-01 0 0
3.422000000000e+11 0 0 4.0450849718742860e-01 -2.9389262614629863e-01 4.0450849718742860e-01 -2.9389262614629863e-01 0 0
3.423000000000e+11 0 0 2.9389262614627149e-01 -4.0450849718744836e-01 2.9389262614627149e-01 -4.0450849718744836e-01 0 0
3.424000000000e+11 0 0 1.5450849718752069e-01 -4.7552825814756150e-01 1.5450849718752069e-01 -4.7552825814756150e-01 0 0
3.425000000000e+11 0 0 -5.8075802917912720e-14 -5.0000000000000000e-01 -5.8075802917912720e-14 -5.0000000000000000e-01 0 0
3.426000000000e+11 0 0 -1.5450849718752302e-01 -4.7552825814756078e-01 -1.5450849718752302e-01 -4.7552825814756078e-01 0 0
3.427000000000e+11 0 0 -2.9389262614618150e-01 -4.0450849718751369e-01 -2.9389262614618150e-01 -4.0450849718751369e-01 0 0
3.428000000000e+11 0 0 -4.0450849718749687e-01 -2.9389262614620471e-01 -4.0450849718749687e-01 -2.9389262614620471e-01 0 0
3.429000000000e+11 0 0 -4.7552825814758704e-01 -1.5450849718744214e-01 -4.7552825814758704e-01 -1.5450849718744214e-01 0 0
3.430000000000e+11 0 0 -5.0000000000000000e-01 2.6958942058429656e-14 -5.0000000000000000e-01 2.6958942058429656e-14 0 0
3.431000000000e+11 0 0 -4.7552825814757038e-01 1.5450849718749343e-01 -4.7552825814757038e-01 1.5450849718749343e-01 0 0
3.432000000000e+11 0 0 -4.0450849718746518e-01 2.9389262614624828e-01 -4.0450849718746518e-01 2.9389262614624828e-01 0 0
3.433000000000e+11 0 0 -2.9389262614622985e-01 4.0450849718747856e-01 -2.9389262614622985e-01 4.0450849718747856e-01 0 0
3.434000000000e+11 0 0 -1.5450849718747175e-01 4.7552825814757743e-01 -1.5450849718747175e-01 4.7552825814757743e-01 0 0
3.435000000000e+11 0 0 -4.1579188010534115e-15 5.0000000000000000e-01 -4.1579188010534115e-15 5.0000000000000000e-01 0 0
3.436000000000e+11 0 0 1.5450849718746384e-01 4.7552825814757999e-01 1.5450849718746384e-01 4.7552825814757999e-01 0 0
3.437000000000e+11 0 0 2.9389262614622313e-01 4.0450849718748350e-01 2.9389262614622313e-01 4.0450849718748350e-01 0 0
3.438000000000e+11 0 0 4.0450849718746029e-01 2.9389262614625505e-01 4.0450849718746029e-01 2.9389262614625505e-01 0 0
3.439000000000e+11 0 0 4.7552825814760297e-01 1.5450849718739321e-01 4.7552825814760297e-01 1.5450849718739321e-01 0 0
3.440000000000e+11 0 0 5.0000000000000000e-01 3.5274779660536481e-14 5.0000000000000000e-01 3.5274779660536481e-14 0 0
3.441000000000e+11 0 0 4.7552825814758959e-01 -1.5450849718743426e-01 4.7552825814758959e-01 -1.5450849718743426e-01 0 0
3.442000000000e+11 0 0 4.0450849718743492e-01 -2.9389262614628991e-01 4.0450849718743492e-01 -2.9389262614628991e-01 0 0
3.443000000000e+11 0 0 2.9389262614618822e-01 -4.0450849718750881e-01 2.9389262614618822e-01 -4.0450849718750881e-01 0 0
3.444000000000e+11 0 0 1.5450849718753093e-01 -4.7552825814755817e-01 1.5450849718753093e-01 -4.7552825814755817e-01 0 0
3.445000000000e+11 0 0 -4.7295197201596482e-14 -5.0000000000000000e-01 -4.7295197201596482e-14 -5.0000000000000000e-01 0 0
3.446000000000e+11 0 0 -1.5450849718751278e-01 -4.7552825814756411e-01 -1.5450849718751278e-01 -4.7552825814756411e-01 0 0
3.447000000000e+11 0 0 -2.9389262614626477e-01 -4.0450849718745324e-01 -2.9389262614626477e-01 -4.0450849718745324e-01 0 0
3.448000000000e+11 0 0 -4.0450849718749055e-01 -2.9389262614621342e-01 -4.0450849718749055e-01 -2.9389262614621342e-01 0 0
3.449000000000e+11 0 0 -4.7552825814758370e-01 -1.5450849718745241e-01 -4.7552825814758370e-01 -1.5450849718745241e-01 0 0
3.450000000000e+11 0 0 -5.0000000000000000e-01 1.6178336342113418e-14 -5.0000000000000000e-01 1.6178336342113418e-14 0 0
3.451000000000e+11 0 0 -4.7552825814757371e-01 1.5450849718748319e-01 -4.7552825814757371e-01 1.5450849718748319e-01 0 0
3.452000000000e+11 0 0 -4.0450849718747151e-01 2.9389262614623957e-01 -4.0450849718747151e-01 2.9389262614623957e-01 0 0
3.453000000000e+11 0 0 -2.9389262614623857e-01 4.0450849718747223e-01 -2.9389262614623857e-01 4.0450849718747223e-01 0 0
3.454000000000e+11 0 0 -1.5450849718748200e-01 4.7552825814757410e-01 -1.5450849718748200e-01 4.7552825814757410e-01 0 0
3.455000000000e+11 0 0 -1.4938524517369649e-14 5.0000000000000000e-01 -1.4938524517369649e-14 5.0000000000000000e-01 0 0
3.456000000000e+11 0 0 1.5450849718745358e-01 4.7552825814758332e-01 1.5450849718745358e-01 4.7552825814758332e-01 0 0
3.457000000000e+11 0 0 2.9389262614621442e-01 4.0450849718748982e-01 2.9389262614621442e-01 4.0450849718748982e-01 0 0
3.458000000000e+11 0 0 4.0450849718745396e-01 2.9389262614626377e-01 4.0450849718745396e-01 2.9389262614626377e-01 0 0
3.459000000000e+11 0 0 4.7552825814759964e-01 1.5450849718740348e-01 4.7552825814759964e-01 1.5450849718740348e-01 0 0
3.460000000000e+11 0 0 5.0000000000000000e-01 4.6055385376852719e-14 5.0000000000000000e-01 4.6055385376852719e-14 0 0
3.461000000000e+11 0 0 4.7552825814759292e-01 -1.5450849718742399e-01 4.7552825814759292e-01 -1.5450849718742399e-01 0 0
3.462000000000e+11 0 0 4.0450849718744131e-01 -2.9389262614628120e-01 4.0450849718744131e-01 -2.9389262614628120e-01 0 0
3.463000000000e+11 0 0 2.9389262614619693e-01 -4.0450849718750248e-01 2.9389262614619693e-01 -4.0450849718750248e-01 0 0
3.464000000000e+11 0 0 1.5450849718743306e-01 -4.7552825814758998e-01 1.5450849718743306e-01 -4.7552825814758998e-01 0 0
3.465000000000e+11 0 0 -3.6514591485280244e-14 -5.0000000000000000e-01 -3.6514591485280244e-14 -5.0000000000000000e-01 0 0
3.466000000000e+11 0 0 -1.5450849718750251e-01 -4.7552825814756744e-01 -1.5450849718750251e-01 -4.7552825814756744e-01 0 0
3.467000000000e+11 0 0 -2.9389262614625605e-01 -4.0450849718745957e-01 -2.9389262614625605e-01 -4.0450849718745957e-01 0 0
3.468000000000e+11 0 0 -4.0450849718748422e-01 -2.9389262614622214e-01 -4.0450849718748422e-01 -2.9389262614622214e-01 0 0
3.469000000000e+11 0 0 -4.7552825814758037e-01 -1.5450849718746265e-01 -4.7552825814758037e-01 -1.5450849718746265e-01 0 0
3.470000000000e+11 0 0 -5.0000000000000000e-01 5.3977306257971796e-15 -5.0000000000000000e-01 5.3977306257971796e-15 0 0
3.471000000000e+11 0 0 -4.7552825814757704e-01 1.5450849718747292e-01 -4.7552825814757704e-01 1.5450849718747292e-01 0 0
3.472000000000e+11 0 0 -4.0450849718747783e-01 2.9389262614623085e-01 -4.0450849718747783e-01 2.9389262614623085e-01 0 0
3.473000000000e+11 0 0 -2.9389262614624728e-01 4.0450849718746590e-01 -2.9389262614624728e-01 4.0450849718746590e-01 0 0
3.474000000000e+11 0 0 -1.5450849718749227e-01 4.7552825814757077e-01 -1.5450849718749227e-01 4.7552825814757077e-01 0 0
3.475000000000e+11 0 0 -2.5719130233685887e-14 5.0000000000000000e-01 -2.5719130233685887e-14 5.0000000000000000e-01 0 0
3.476000000000e+11 0 0 1.5450849718755147e-01 4.7552825814755151e-01 1.5450849718755147e-01 4.7552825814755151e-01 0 0
3.477000000000e+11 0 0 2.9389262614620570e-01 4.0450849718749615e-01 2.9389262614620570e-01 4.0450849718749615e-01 0 0
3.478000000000e+11 0 0 4.0450849718744764e-01 2.9389262614627248e-01 4.0450849718744764e-01 2.9389262614627248e-01 0 0
3.479000000000e+11 0 0 4.7552825814759625e-01 1.5450849718741372e-01 4.7552825814759625e-01 1.5450849718741372e-01 0 0
3.480000000000e+11 0 0 5.0000000000000000e-01 -5.6850846628447079e-14 5.0000000000000000e-01 -5.6850846628447079e-14 0 0
3.481000000000e+11 0 0 4.7552825814759625e-01 -1.5450849718741375e-01 4.7552825814759625e-01 -1.5450849718741375e-01 0 0
3.482000000000e+11 0 0 4.0450849718744764e-01 -2.9389262614627248e-01 4.0450849718744764e-01 -2.9389262614627248e-01 0 0
3.483000000000e+11 0 0 2.9389262614620565e-01 -4.0450849718749615e-01 2.9389262614620565e-01 -4.0450849718749615e-01 0 0
3.484000000000e+11 0 0 1.5450849718744331e-01 -4.7552825814758665e-01 1.5450849718744331e-01 -4.7552825814758665e-01 0 0
3.485000000000e+11 0 0 -2.5733985768964009e-14 -5.0000000000000000e-01 -2.5733985768964009e-14 -5.0000000000000000e-01 0 0
3.486000000000e+11 0 0 -1.5450849718749227e-01 -4.7552825814757077e-01 -1.5450849718749227e-01 -4.7552825814757077e-01 0 0
3.487000000000e+11 0 0 -2.9389262614624734e-01 -4.0450849718746590e-01 -2.9389262614624734e-01 -4.0450849718746590e-01 0 0
3.488000000000e+11 0 0 -4.0450849718747789e-01 -2.9389262614623085e-01 -4.0450849718747789e-01 -2.9389262614623085e-01 0 0
3.489000000000e+11 0 0 -4.7552825814757704e-01 -1.5450849718747292e-01 -4.7552825814757704e-01 -1.5450849718747292e-01 0 0
3.490000000000e+11 0 0 -5.0000000000000000e-01 -5.3828750905190591e-15 -5.0000000000000000e-01 -5.3828750905190591e-15 0 0
3.491000000000e+11 0 0 -4.7552825814758037e-01 1.5450849718746268e-01 -4.7552825814758037e-01 1.5450849718746268e-01 0 0
3.492000000000e+11 0 0 -4.0450849718748416e-01 2.9389262614622214e-01 -4.0450849718748416e-01 2.9389262614622214e-01 0 0
3.493000000000e+11 0 0 -2.9389262614616407e-01 4.0450849718752641e-01 -2.9389262614616407e-01 4.0450849718752641e-01 0 0
3.494000000000e+11 0 0 -1.5450849718750251e-01 4.7552825814756744e-01 -1.5450849718750251e-01 4.7552825814756744e-01 0 0
3.495000000000e+11 0 0 -3.6499735950002128e-14 5.0000000000000000e-01 -3.6499735950002128e-14 5.0000000000000000e-01 0 0
3.496000000000e+11 0 0 1.5450849718754120e-01 4.7552825814755484e-01 1.5450849718754120e-01 4.7552825814755484e-01 0 0
3.497000000000e+11 0 0 2.9389262614628892e-01 4.0450849718743564e-01 2.9389262614628892e-01 4.0450849718743564e-01 0 0
3.498000000000e+11 0 0 4.0450849718744131e-01 2.9389262614628120e-01 4.0450849718744131e-01 2.9389262614628120e-01 0 0
3.499000000000e+11 0 0 4.7552825814759292e-01 1.5450849718742399e-01 4.7552825814759292e-01 1.5450849718742399e-01 0 0
3.500000000000e+11 0 0 5.0000000000000000e-01 6.7616596809485188e-14 5.0000000000000000e-01 6.7616596809485188e-14 0 0
3.501000000000e+11 0 0 4.7552825814756450e-01 -1.5450849718751161e-01 4.7552825814756450e-01 -1.5450849718751161e-01 0 0
3.502000000000e+11 0 0 4.0450849718745396e-01 -2.9389262614626377e-01 4.0450849718745396e-01 -2.9389262614626377e-01 0 0
3.503000000000e+11 0 0 2.9389262614621442e-01 -4.0450849718748982e-01 2.9389262614621442e-01 -4.0450849718748982e-01 0 0
3.504000000000e+11 0 0 1.5450849718745358e-01 -4.7552825814758332e-01 1.5450849718745358e-01 -4.7552825814758332e-01 0 0
3.505000000000e+11 0 0 -1.4953380052647771e-14 -5.0000000000000000e-01 -1.4953380052647771e-14 -5.0000000000000000e-01 0 0
3.506000000000e+11 0 0 -1.5450849718748202e-01 -4.7552825814757410e-01 -1.5450849718748202e-01 -4.7552825814757410e-01 0 0
3.507000000000e+11 0 0 -2.9389262614623857e-01 -4.0450849718747223e-01 -2.9389262614623857e-01 -4.0450849718747223e-01 0 0
3.508000000000e+11 0 0 -4.0450849718747151e-01 -2.9389262614623957e-01 -4.0450849718747151e-01 -2.9389262614623957e-01 0 0
3.509000000000e+11 0 0 -4.7552825814757371e-01 -1.5450849718748316e-01 -4.7552825814757371e-01 -1.5450849718748316e-01 0 0
3.510000000000e+11 0 0 -5.0000000000000000e-01 -1.6163480806835296e-14 -5.0000000000000000e-01 -1.6163480806835296e-14 0 0
3.511000000000e+11 0 0 -4.7552825814754857e-01 1.5450849718756055e-01 -4.7552825814754857e-01 1.5450849718756055e-01 0 0
3.512000000000e+11 0 0 -4.0450849718749055e-01 2.9389262614621342e-01 -4.0450849718749055e-01 2.9389262614621342e-01 0 0
3.513000000000e+11 0 0 -2.9389262614626477e-01 4.0450849718745324e-01 -2.9389262614626477e-01 4.0450849718745324e-01 0 0
3.514000000000e+11 0 0 -1.5450849718740464e-01 4.7552825814759925e-01 -1.5450849718740464e-01 4.7552825814759925e-01 0 0
3.515000000000e+11 0 0 -4.7280341666318366e-14 5.0000000000000000e-01 -4.7280341666318366e-14 5.0000000000000000e-01 0 0
3.516000000000e+11 0 0 1.5450849718742282e-01 4.7552825814759331e-01 1.5450849718742282e-01 4.7552825814759331e-01 0 0
3.517000000000e+11 0 0 2.9389262614628020e-01 4.0450849718744197e-01 2.9389262614628020e-01 4.0450849718744197e-01 0 0
3.518000000000e+11 0 0 4.0450849718743492e-01 2.9389262614628991e-01 4.0450849718743492e-01 2.9389262614628991e-01 0 0
3.519000000000e+11 0 0 4.7552825814758959e-01 1.5450849718743423e-01 4.7552825814758959e-01 1.5450849718743423e-01 0 0
3.520000000000e+11 0 0 5.0000000000000000e-01 -3.5289635195814597e-14 5.0000000000000000e-01 -3.5289635195814597e-14 0 0
3.521000000000e+11 0 0 4.7552825814760291e-01 -1.5450849718739323e-01 4.7552825814760291e-01 -1.5450849718739323e-01 0 0
3.522000000000e+11 0 0 4.0450849718746029e-01 -2.9389262614625505e-01 4.0450849718746029e-01 -2.9389262614625505e-01 0 0
3.523000000000e+11 0 0 2.9389262614622313e-01 -4.0450849718748350e-01 2.9389262614622313e-01 -4.0450849718748350e-01 0 0
3.524000000000e+11 0 0 1.5450849718735571e-01 -4.7552825814761512e-01 1.5450849718735571e-01 -4.7552825814761512e-01 0 0
3.525000000000e+11 0 0 -4.1727743363315319e-15 -5.0000000000000000e-01 -4.1727743363315319e-15 -5.0000000000000000e-01 0 0
3.526000000000e+11 0 0 -1.5450849718747175e-01 -4.7552825814757743e-01 -1.5450849718747175e-01 -4.7552825814757743e-01 0 0
3.527000000000e+11 0 0 -2.9389262614632183e-01 -4.0450849718741178e-01 -2.9389262614632183e-01 -4.0450849718741178e-01 0 0
3.528000000000e+11 0 0 -4.0450849718746518e-01 -2.9389262614624828e-01 -4.0450849718746518e-01 -2.9389262614624828e-01 0 0
3.529000000000e+11 0 0 -4.7552825814757038e-01 -1.5450849718749343e-01 -4.7552825814757038e-01 -1.5450849718749343e-01 0 0
3.530000000000e+11 0 0 -5.0000000000000000e-01 8.6742751198464499e-14 -5.0000000000000000e-01 8.6742751198464499e-14 0 0
3.531000000000e+11 0 0 -4.7552825814758704e-01 1.5450849718744217e-01 -4.7552825814758704e-01 1.5450849718744217e-01 0 0
3.532000000000e+11 0 0 -4.0450849718743004e-01 2.9389262614629669e-01 -4.0450849718743004e-01 2.9389262614629669e-01 0 0
3.533000000000e+11 0 0 -2.9389262614618150e-01 4.0450849718751375e-01 -2.9389262614618150e-01 4.0450849718751375e-01 0 0
3.534000000000e+11 0 0 -1.5450849718752302e-01 4.7552825814756078e-01 -1.5450849718752302e-01 4.7552825814756078e-01 0 0
3.535000000000e+11 0 0 5.5625890338981426e-14 5.0000000000000000e-01 5.5625890338981426e-14 5.0000000000000000e-01 0 0
3.536000000000e+11 0 0 1.5450849718752069e-01 4.7552825814756150e-01 1.5450849718752069e-01 4.7552825814756150e-01 0 0
3.537000000000e+11 0 0 2.9389262614617950e-01 4.0450849718751514e-01 2.9389262614617950e-01 4.0450849718751514e-01 0 0
3.538000000000e+11 0 0 4.0450849718749543e-01 2.9389262614620665e-01 4.0450849718749543e-01 2.9389262614620665e-01 0 0
3.539000000000e+11 0 0 4.7552825814758626e-01 1.5450849718744447e-01 4.7552825814758626e-01 1.5450849718744447e-01 0 0
3.540000000000e+11 0 0 5.0000000000000000e-01 -2.4509029479498359e-14 5.0000000000000000e-01 -2.4509029479498359e-14 0 0
3.541000000000e+11 0 0 4.7552825814757116e-01 -1.5450849718749110e-01 4.7552825814757116e-01 -1.5450849718749110e-01 0 0
3.542000000000e+11 0 0 4.0450849718746662e-01 -2.9389262614624634e-01 4.0450849718746662e-01 -2.9389262614624634e-01 0 0
3.543000000000e+11 0 0 2.9389262614623185e-01 -4.0450849718747717e-01 2.9389262614623185e-01 -4.0450849718747717e-01 0 0
3.544000000000e+11 0 0 1.5450849718747409e-01 -4.7552825814757665e-01 1.5450849718747409e-01 -4.7552825814757665e-01 0 0
3.545000000000e+11 0 0 6.6078313799847060e-15 -5.0000000000000000e-01 6.6078313799847060e-15 -5.0000000000000000e-01 0 0
3.546000000000e+11 0 0 -1.5450849718746151e-01 -4.7552825814758076e-01 -1.5450849718746151e-01 -4.7552825814758076e-01 0 0
3.547000000000e+11 0 0 -2.9389262614622114e-01 -4.0450849718748494e-01 -2.9389262614622114e-01 -4.0450849718748494e-01 0 0
3.548000000000e+11 0 0 -4.0450849718752568e-01 -2.9389262614616501e-01 -4.0450849718752568e-01 -2.9389262614616501e-01 0 0
3.549000000000e+11 0 0 -4.7552825814756705e-01 -1.5450849718750367e-01 -4.7552825814756705e-01 -1.5450849718750367e-01 0 0
3.550000000000e+11 0 0 -5.0000000000000000e-01 -3.7724692239467775e-14 -5.0000000000000000e-01 -3.7724692239467775e-14 0 0
3.551000000000e+11 0 0 -4.7552825814755523e-01 1.5450849718754003e-01 -4.7552825814755523e-01 1.5450849718754003e-01 0 0
3.552000000000e+11 0 0 -4.0450849718750320e-01 2.9389262614619599e-01 -4.0450849718750320e-01 2.9389262614619599e-01 0 0
3.553000000000e+11 0 0 -2.9389262614619022e-01 4.0450849718750737e-01 -2.9389262614619022e-01 4.0450849718750737e-01 0 0
3.554000000000e+11 0 0 -1.5450849718742515e-01 4.7552825814759259e-01 -1.5450849718742515e-01 4.7552825814759259e-01 0 0
3.555000000000e+11 0 0 -6.8841553098950841e-14 5.0000000000000000e-01 -6.8841553098950841e-14 5.0000000000000000e-01 0 0
3.556000000000e+11 0 0 1.5450849718751045e-01 4.7552825814756483e-01 1.5450849718751045e-01 4.7552825814756483e-01 0 0
3.557000000000e+11 0 0 2.9389262614626277e-01 4.0450849718745469e-01 2.9389262614626277e-01 4.0450849718745469e-01 0 0
3.558000000000e+11 0 0 4.0450849718742227e-01 2.9389262614630735e-01 4.0450849718742227e-01 2.9389262614630735e-01 0 0
3.559000000000e+11 0 0 4.7552825814758293e-01 1.5450849718745474e-01 4.7552825814758293e-01 1.5450849718745474e-01 0 0
3.560000000000e+11 0 0 5.0000000000000000e-01 -1.3728423763182123e-14 5.0000000000000000e-01 -1.3728423763182123e-14 0 0
3.561000000000e+11 0 0 4.7552825814753935e-01 -1.5450849718758897e-01 4.7552825814753935e-01 -1.5450849718758897e-01 0 0
3.562000000000e+11 0 0 4.0450849718747295e-01 -2.9389262614623762e-01 4.0450849718747295e-01 -2.9389262614623762e-01 0 0
3.563000000000e+11 0 0 2.9389262614624057e-01 -4.0450849718747078e-01 2.9389262614624057e-01 -4.0450849718747078e-01 0 0
3.564000000000e+11 0 0 1.5450849718737622e-01 -4.7552825814760846e-01 1.5450849718737622e-01 -4.7552825814760846e-01 0 0
3.565000000000e+11 0 0 1.7388437096300946e-14 -5.0000000000000000e-01 1.7388437096300946e-14 -5.0000000000000000e-01 0 0
3.566000000000e+11 0 0 -1.5450849718745124e-01 -4.7552825814758409e-01 -1.5450849718745124e-01 -4.7552825814758409e-01 0 0
3.567000000000e+11 0 0 -2.9389262614630440e-01 -4.0450849718742443e-01 -2.9389262614630440e-01 -4.0450849718742443e-01 0 0
3.568000000000e+11 0 0 -4.0450849718745252e-01 -2.9389262614626571e-01 -4.0450849718745252e-01 -2.9389262614626571e-01 0 0
3.569000000000e+11 0 0 -4.7552825814759886e-01 -1.5450849718740581e-01 -4.7552825814759886e-01 -1.5450849718740581e-01 0 0
3.570000000000e+11 0 0 -5.0000000000000000e-01 6.5181539765832024e-14 -5.0000000000000000e-01 6.5181539765832024e-14 0 0
3.571000000000e+11 0 0 -4.7552825814759370e-01 1.5450849718742166e-01 -4.7552825814759370e-01 1.5450849718742166e-01 0 0
3.572000000000e+11 0 0 -4.0450849718744269e-01 2.9389262614627920e-01 -4.0450849718744269e-01 2.9389262614627920e-01 0 0
3.573000000000e+11 0 0 -2.9389262614619893e-01 4.0450849718750104e-01 -2.9389262614619893e-01 4.0450849718750104e-01 0 0
3.574000000000e+11 0 0 -1.5450849718754353e-01 4.7552825814755412e-01 -1.5450849718754353e-01 4.7552825814755412e-01 0 0
3.575000000000e+11 0 0 3.4064678906348950e-14 5.0000000000000000e-01 3.4064678906348950e-14 5.0000000000000000e-01 0 0
3.576000000000e+11 0 0 1.5450849718750020e-01 4.7552825814756816e-01 1.5450849718750020e-01 4.7552825814756816e-01 0 0
3.577000000000e+11 0 0 2.9389262614625405e-01 4.0450849718746101e-01 2.9389262614625405e-01 4.0450849718746101e-01 0 0
3.578000000000e+11 0 0 4.0450849718748277e-01 2.9389262614622413e-01 4.0450849718748277e-01 2.9389262614622413e-01 0 0
3.579000000000e+11 0 0 4.7552825814757960e-01 1.5450849718746498e-01 4.7552825814757960e-01 1.5450849718746498e-01 0 0
3.580000000000e+11 0 0 5.0000000000000000e-01 -2.9478180468658846e-15 5.0000000000000000e-01 -2.9478180468658846e-15 0 0
3.581000000000e+11 0 0 4.7552825814757782e-01 -1.5450849718747059e-01 4.7552825814757782e-01 -1.5450849718747059e-01 0 0
3.582000000000e+11 0 0 4.0450849718741244e-01 -2.9389262614632083e-01 4.0450849718741244e-01 -2.9389262614632083e-01 0 0
3.583000000000e+11 0 0 2.9389262614624928e-01 -4.0450849718746446e-01 2.9389262614624928e-01 -4.0450849718746446e-01 0 0
3.584000000000e+11 0 0 1.5450849718749457e-01 -4.7552825814756999e-01 1.5450849718749457e-01 -4.7552825814756999e-01 0 0
3.585000000000e+11 0 0 -8.5517794908998846e-14 -5.0000000000000000e-01 -8.5517794908998846e-14 -5.0000000000000000e-01 0 0
3.586000000000e+11 0 0 -1.5450849718744100e-01 -4.7552825814758742e-01 -1.5450849718744100e-01 -4.7552825814758742e-01 0 0
3.587000000000e+11 0 0 -2.9389262614620371e-01 -4.0450849718749760e-01 -2.9389262614620371e-01 -4.0450849718749760e-01 0 0
3.588000000000e+11 0 0 -4.0450849718751303e-01 -2.9389262614618250e-01 -4.0450849718751303e-01 -2.9389262614618250e-01 0 0
3.589000000000e+11 0 0 -4.7552825814756039e-01 -1.5450849718752419e-01 -4.7552825814756039e-01 -1.5450849718752419e-01 0 0
3.590000000000e+11 0 0 -5.0000000000000000e-01 5.4400934049515779e-14 -5.0000000000000000e-01 5.4400934049515779e-14 0 0
3.591000000000e+11 0 0 -4.7552825814756189e-01 1.5450849718751952e-01 -4.7552825814756189e-01 1.5450849718751952e-01 0 0
3.592000000000e+11 0 0 -4.0450849718751586e-01 2.9389262614617850e-01 -4.0450849718751586e-01 2.9389262614617850e-01 0 0
3.593000000000e+11 0 0 -2.9389262614620765e-01 4.0450849718749471e-01 -2.9389262614620765e-01 4.0450849718749471e-01 0 0
3.594000000000e+11 0 0 -1.5450849718744564e-01 4.7552825814758592e-01 -1.5450849718744564e-01 4.7552825814758592e-01 0 0
3.595000000000e+11 0 0 -9.0402764531583317e-14 5.0000000000000000e-01 -9.0402764531583317e-14 5.0000000000000000e-01 0 0
3.596000000000e+11 0 0 1.5450849718748993e-01 4.7552825814757149e-01 1.5450849718748993e-01 4.7552825814757149e-01 0 0
3.597000000000e+11 0 0 2.9389262614624534e-01 4.0450849718746734e-01 2.9389262614624534e-01 4.0450849718746734e-01 0 0
3.598000000000e+11 0 0 4.0450849718754323e-01 2.9389262614614087e-01 4.0450849718754323e-01 2.9389262614614087e-01 0 0
3.599000000000e+11 0 0 4.7552825814757627e-01 1.5450849718747525e-01 4.7552825814757627e-01 1.5450849718747525e-01 0 0
3.600000000000e+11 0 0 5.0000000000000000e-01 7.8327876694503529e-15 5.0000000000000000e-01 7.8327876694503529e-15 0 0
3.601000000000e+11 0 0 4.7552825814754601e-01 -1.5450849718756846e-01 4.7552825814754601e-01 -1.5450849718756846e-01 0 0
3.602000000000e+11 0 0 4.0450849718748561e-01 -2.9389262614622014e-01 4.0450849718748561e-01 -2.9389262614622014e-01 0 0
3.603000000000e+11 0 0 2.9389262614625800e-01 -4.0450849718745813e-01 2.9389262614625800e-01 -4.0450849718745813e-01 0 0
3.604000000000e+11 0 0 1.5450849718739670e-01 -4.7552825814760180e-01 1.5450849718739670e-01 -4.7552825814760180e-01 0 0
3.605000000000e+11 0 0 3.8949648528933421e-14 -5.0000000000000000e-01 3.8949648528933421e-14 -5.0000000000000000e-01 0 0
3.606000000000e+11 0 0 -1.5450849718753887e-01 -4.7552825814755562e-01 -1.5450849718753887e-01 -4.7552825814755562e-01 0 0
3.607000000000e+11 0 0 -2.9389262614628697e-01 -4.0450849718743709e-01 -2.9389262614628697e-01 -4.0450849718743709e-01 0 0
3.608000000000e+11 0 0 -4.0450849718743986e-01 -2.9389262614628320e-01 -4.0450849718743986e-01 -2.9389262614628320e-01 0 0
3.609000000000e+11 0 0 -4.7552825814759220e-01 -1.5450849718742632e-01 -4.7552825814759220e-01 -1.5450849718742632e-01 0 0
3.610000000000e+11 0 0 -5.0000000000000000e-01 4.3620328333199541e-14 -5.0000000000000000e-01 4.3620328333199541e-14 0 0
3.611000000000e+11 0 0 -4.7552825814756522e-01 1.5450849718750928e-01 -4.7552825814756522e-01 1.5450849718750928e-01 0 0
3.612000000000e+11 0 0 -4.0450849718745541e-01 2.9389262614626177e-01 -4.0450849718745541e-01 2.9389262614626177e-01 0 0
3.613000000000e+11 0 0 -2.9389262614621636e-01 4.0450849718748838e-01 -2.9389262614621636e-01 4.0450849718748838e-01 0 0
3.614000000000e+11 0 0 -1.5450849718745591e-01 4.7552825814758259e-01 -1.5450849718745591e-01 4.7552825814758259e-01 0 0
3.615000000000e+11 0 0 1.2503467473716476e-14 5.0000000000000000e-01 1.2503467473716476e-14 5.0000000000000000e-01 0 0
3.616000000000e+11 0 0 1.5450849718747969e-01 4.7552825814757482e-01 1.5450849718747969e-01 4.7552825814757482e-01 0 0
3.617000000000e+11 0 0 2.9389262614623662e-01 4.0450849718747367e-01 2.9389262614623662e-01 4.0450849718747367e-01 0 0
3.618000000000e+11 0 0 4.0450849718747012e-01 2.9389262614624156e-01 4.0450849718747012e-01 2.9389262614624156e-01 0 0
3.619000000000e+11 0 0 4.7552825814760807e-01 1.5450849718737739e-01 4.7552825814760807e-01 1.5450849718737739e-01 0 0
3.620000000000e+11 0 0 5.0000000000000000e-01 1.8613393385766592e-14 5.0000000000000000e-01 1.8613393385766592e-14 0 0
3.621000000000e+11 0 0 4.7552825814758448e-01 -1.5450849718745008e-01 4.7552825814758448e-01 -1.5450849718745008e-01 0 0
3.622000000000e+11 0 0 4.0450849718742515e-01 -2.9389262614630340e-01 4.0450849718742515e-01 -2.9389262614630340e-01 0 0
3.623000000000e+11 0 0 2.9389262614626671e-01 -4.0450849718745180e-01 2.9389262614626671e-01 -4.0450849718745180e-01 0 0
3.624000000000e+11 0 0 1.5450849718751508e-01 -4.7552825814756333e-01 1.5450849718751508e-01 -4.7552825814756333e-01 0 0
3.625000000000e+11 0 0 -6.3956583476366370e-14 -5.0000000000000000e-01 -6.3956583476366370e-14 -5.0000000000000000e-01 0 0
3.626000000000e+11 0 0 -1.5450849718742049e-01 -4.7552825814759409e-01 -1.5450849718742049e-01 -4.7552825814759409e-01 0 0
3.627000000000e+11 0 0 -2.9389262614627826e-01 -4.0450849718744342e-01 -2.9389262614627826e-01 -4.0450849718744342e-01 0 0
3.628000000000e+11 0 0 -4.0450849718750032e-01 -2.9389262614619993e-01 -4.0450849718750032e-01 -2.9389262614619993e-01 0 0
3.629000000000e+11 0 0 -4.7552825814755373e-01 -1.5450849718754470e-01 -4.7552825814755373e-01 -1.5450849718754470e-01 0 0
3.630000000000e+11 0 0 -5.0000000000000000e-01 3.2839722616883303e-14 -5.0000000000000000e-01 3.2839722616883303e-14 0 0
3.631000000000e+11 0 0 -4.7552825814756855e-01 1.5450849718749904e-01 -4.7552825814756855e-01 1.5450849718749904e-01 0 0
3.632000000000e+11 0 0 -4.0450849718752857e-01 2.9389262614616107e-01 -4.0450849718752857e-01 2.9389262614616107e-01 0 0
3.633000000000e+11 0 0 -2.9389262614622508e-01 4.0450849718748205e-01 -2.9389262614622508e-01 4.0450849718748205e-01 0 0
3.634000000000e+11 0 0 -1.5450849718746615e-01 4.7552825814757926e-01 -1.5450849718746615e-01 4.7552825814757926e-01 0 0
3.635000000000e+11 0 0 1.1540969947901628e-13 5.0000000000000000e-01 1.1540969947901628e-13 5.0000000000000000e-01 0 0
3.636000000000e+11 0 0 1.5450849718746942e-01 4.7552825814757815e-01 1.5450849718746942e-01 4.7552825814757815e-01 0 0
3.637000000000e+11 0 0 2.9389262614622791e-01 4.0450849718748000e-01 2.9389262614622791e-01 4.0450849718748000e-01 0 0
3.638000000000e+11 0 0 4.0450849718753057e-01 2.9389262614615830e-01 4.0450849718753057e-01 2.9389262614615830e-01 0 0
3.639000000000e+11 0 0 4.7552825814756960e-01 1.5450849718749574e-01 4.7552825814756960e-01 1.5450849718749574e-01 0 0
3.640000000000e+11 0 0 5.0000000000000000e-01 -8.4292838619533206e-14 5.0000000000000000e-01 -8.4292838619533206e-14 0 0
3.641000000000e+11 0 0 4.7552825814755267e-01 -1.5450849718754797e-01 4.7552825814755267e-01 -1.5450849718754797e-01 0 0
3.642000000000e+11 0 0 4.0450849718749832e-01 -2.9389262614620271e-01 4.0450849718749832e-01 -2.9389262614620271e-01 0 0
3.643000000000e+11 0 0 2.9389262614618350e-01 -4.0450849718751231e-01 2.9389262614618350e-01 -4.0450849718751231e-01 0 0
3.644000000000e+11 0 0 1.5450849718741722e-01 -4.7552825814759514e-01 1.5450849718741722e-01 -4.7552825814759514e-01 0 0
3.645000000000e+11 0 0 6.0510859961565897e-14 -5.0000000000000000e-01 6.0510859961565897e-14 -5.0000000000000000e-01 0 0
3.646000000000e+11 0 0 -1.5450849718751836e-01 -4.7552825814756228e-01 -1.5450849718751836e-01 -4.7552825814756228e-01 0 0
3.647000000000e+11 0 0 -2.9389262614626954e-01 -4.0450849718744974e-01 -2.9389262614626954e-01 -4.0450849718744974e-01 0 0
3.648000000000e+11 0 0 -4.0450849718749399e-01 -2.9389262614620865e-01 -4.0450849718749399e-01 -2.9389262614620865e-01 0 0
3.649000000000e+11 0 0 -4.7552825814758554e-01 -1.5450849718744680e-01 -4.7552825814758554e-01 -1.5450849718744680e-01 0 0
3.650000000000e+11 0 0 -5.0000000000000000e-01 2.2059116900567066e-14 -5.0000000000000000e-01 2.2059116900567066e-14 0 0
3.651000000000e+11 0 0 -4.7552825814757188e-01 1.5450849718748877e-01 -4.7552825814757188e-01 1.5450849718748877e-01 0 0
3.652000000000e+11 0 0 -4.0450849718746806e-01 2.9389262614624434e-01 -4.0450849718746806e-01 2.9389262614624434e-01 0 0
3.653000000000e+11 0 0 -2.9389262614623379e-01 4.0450849718747572e-01 -2.9389262614623379e-01 4.0450849718747572e-01 0 0
3.654000000000e+11 0 0 -1.5450849718747642e-01 4.7552825814757593e-01 -1.5450849718747642e-01 4.7552825814757593e-01 0 0
3.655000000000e+11 0 0 -9.0577439589160014e-15 5.0000000000000000e-01 -9.0577439589160014e-15 5.0000000000000000e-01 0 0
3.656000000000e+11 0 0 1.5450849718756729e-01 4.7552825814754640e-01 1.5450849718756729e-01 4.7552825814754640e-01 0 0
3.657000000000e+11 0 0 2.9389262614621914e-01 4.0450849718748633e-01 2.9389262614621914e-01 4.0450849718748633e-01 0 0
3.658000000000e+11 0 0 4.0450849718745741e-01 2.9389262614625900e-01 4.0450849718745741e-01 2.9389262614625900e-01 0 0
3.659000000000e+11 0 0 4.7552825814760141e-01 1.5450849718739787e-01 4.7552825814760141e-01 1.5450849718739787e-01 0 0
3.660000000000e+11 0 0 5.0000000000000000e-01 4.0174604818399068e-14 5.0000000000000000e-01 4.0174604818399068e-14 0 0
3.661000000000e+11 0 0 4.7552825814759114e-01 -1.5450849718742959e-01 4.7552825814759114e-01 -1.5450849718742959e-01 0 0
3.662000000000e+11 0 0 4.0450849718743781e-01 -2.9389262614628597e-01 4.0450849718743781e-01 -2.9389262614628597e-01 0 0
3.663000000000e+11 0 0 2.9389262614628420e-01 -4.0450849718743914e-01 2.9389262614628420e-01 -4.0450849718743914e-01 0 0
3.664000000000e+11 0 0 1.5450849718742748e-01 -4.7552825814759181e-01 1.5450849718742748e-01 -4.7552825814759181e-01 0 0
3.665000000000e+11 0 0 -4.2395372043733895e-14 -5.0000000000000000e-01 -4.2395372043733895e-14 -5.0000000000000000e-01 0 0
3.666000000000e+11 0 0 -1.5450849718739998e-01 -4.7552825814760075e-01 -1.5450849718739998e-01 -4.7552825814760075e-01 0 0
3.667000000000e+11 0 0 -2.9389262614626077e-01 -4.0450849718745613e-01 -2.9389262614626077e-01 -4.0450849718745613e-01 0 0
3.668000000000e+11 0 0 -4.0450849718748766e-01 -2.9389262614621736e-01 -4.0450849718748766e-01 -2.9389262614621736e-01 0 0
3.669000000000e+11 0 0 -4.7552825814758221e-01 -1.5450849718745707e-01 -4.7552825814758221e-01 -1.5450849718745707e-01 0 0
3.670000000000e+11 0 0 -5.0000000000000000e-01 1.1278511184250828e-14 -5.0000000000000000e-01 1.1278511184250828e-14 0 0
3.671000000000e+11 0 0 -4.7552825814757521e-01 1.5450849718747853e-01 -4.7552825814757521e-01 1.5450849718747853e-01 0 0
3.672000000000e+11 0 0 -4.0450849718740756e-01 2.9389262614632761e-01 -4.0450849718740756e-01 2.9389262614632761e-01 0 0
3.673000000000e+11 0 0 -2.9389262614624256e-01 4.0450849718746934e-01 -2.9389262614624256e-01 4.0450849718746934e-01 0 0
3.674000000000e+11 0 0 -1.5450849718748666e-01 4.7552825814757260e-01 -1.5450849718748666e-01 4.7552825814757260e-01 0 0
3.675000000000e+11 0 0 9.3848488046383790e-14 5.0000000000000000e-01 9.3848488046383790e-14 5.0000000000000000e-01 0 0
3.676000000000e+11 0 0 1.5450849718744891e-01 4.7552825814758481e-01 1.5450849718744891e-01 4.7552825814758481e-01 0 0
3.677000000000e+11 0 0 2.9389262614630240e-01 4.0450849718742588e-01 2.9389262614630240e-01 4.0450849718742588e-01 0 0
3.678000000000e+11 0 0 4.0450849718751791e-01 2.9389262614617573e-01 4.0450849718751791e-01 2.9389262614617573e-01 0 0
3.679000000000e+11 0 0 4.7552825814756294e-01 1.5450849718751625e-01 4.7552825814756294e-01 1.5450849718751625e-01 0 0
3.680000000000e+11 0 0 5.0000000000000000e-01 -6.2731627186900730e-14 5.0000000000000000e-01 -6.2731627186900730e-14 0 0
3.681000000000e+11 0 0 4.7552825814755934e-01 -1.5450849718752746e-01 4.7552825814755934e-01 -1.5450849718752746e-01 0 0
3.682000000000e+11 0 0 4.0450849718751097e-01 -2.9389262614618528e-01 4.0450849718751097e-01 -2.9389262614618528e-01 0 0
3.683000000000e+11 0 0 2.9389262614620093e-01 -4.0450849718749959e-01 2.9389262614620093e-01 -4.0450849718749959e-01 0 0
3.684000000000e+11 0 0 1.5450849718743773e-01 -4.7552825814758848e-01 1.5450849718743773e-01 -4.7552825814758848e-01 0 0
3.685000000000e+11 0 0 -3.1614766327417657e-14 -5.0000000000000000e-01 -3.1614766327417657e-14 -5.0000000000000000e-01 0 0
3.686000000000e+11 0 0 -1.5450849718749787e-01 -4.7552825814756894e-01 -1.5450849718749787e-01 -4.7552825814756894e-01 0 0
3.687000000000e+11 0 0 -2.9389262614625206e-01 -4.0450849718746246e-01 -2.9389262614625206e-01 -4.0450849718746246e-01 0 0
3.688000000000e+11 0 0 -4.0450849718748133e-01 -2.9389262614622608e-01 -4.0450849718748133e-01 -2.9389262614622608e-01 0 0
3.689000000000e+11 0 0 -4.7552825814757888e-01 -1.5450849718746731e-01 -4.7552825814757888e-01 -1.5450849718746731e-01 0 0
3.690000000000e+11 0 0 -5.0000000000000000e-01 4.9790546793458995e-16 -5.0000000000000000e-01 4.9790546793458995e-16 0 0
3.691000000000e+11 0 0 -4.7552825814757854e-01 1.5450849718746826e-01 -4.7552825814757854e-01 1.5450849718746826e-01 0 0
3.692000000000e+11 0 0 -4.0450849718748072e-01 2.9389262614622691e-01 -4.0450849718748072e-01 2.9389262614622691e-01 0 0
3.693000000000e+11 0 0 -2.9389262614615930e-01 4.0450849718752985e-01 -2.9389262614615930e-01 4.0450849718752985e-01 0 0
3.694000000000e+11 0 0 -1.5450849718749690e-01 4.7552825814756927e-01 -1.5450849718749690e-01 4.7552825814756927e-01 0 0
3.695000000000e+11 0 0 -3.0618955391548477e-14 5.0000000000000000e-01 -3.0618955391548477e-14 5.0000000000000000e-01 0 0
3.696000000000e+11 0 0 1.5450849718754681e-01 4.7552825814755306e-01 1.5450849718754681e-01 4.7552825814755306e-01 0 0
3.697000000000e+11 0 0 2.9389262614620171e-01 4.0450849718749904e-01 2.9389262614620171e-01 4.0450849718749904e-01 0 0
3.698000000000e+11 0 0 4.0450849718751158e-01 2.9389262614618444e-01 4.0450849718751158e-01 2.9389262614618444e-01 0 0
3.699000000000e+11 0 0 4.7552825814759475e-01 1.5450849718741838e-01 4.7552825814759475e-01 1.5450849718741838e-01 0 0
3.700000000000e+11 0 0 5.0000000000000000e-01 6.1735816251031538e-14 5.0000000000000000e-01 6.1735816251031538e-14 0 0
3.701000000000e+11 0 0 4.7552825814756267e-01 -1.5450849718751719e-01 4.7552825814756267e-01 -1.5450849718751719e-01 0 0
3.702000000000e+11 0 0 4.0450849718745047e-01 -2.9389262614626854e-01 4.0450849718745047e-01 -2.9389262614626854e-01 0 0
3.703000000000e+11 0 0 2.9389262614630163e-01 -4.0450849718742643e-01 2.9389262614630163e-01 -4.0450849718742643e-01 0 0
3.704000000000e+11 0 0 1.5450849718744797e-01 -4.7552825814758515e-01 1.5450849718744797e-01 -4.7552825814758515e-01 0 0
3.705000000000e+11 0 0 -2.0834160611101419e-14 -5.0000000000000000e-01 -2.0834160611101419e-14 -5.0000000000000000e-01 0 0
3.706000000000e+11 0 0 -1.5450849718748760e-01 -4.7552825814757227e-01 -1.5450849718748760e-01 -4.7552825814757227e-01 0 0
3.707000000000e+11 0 0 -2.9389262614624334e-01 -4.0450849718746879e-01 -2.9389262614624334e-01 -4.0450849718746879e-01 0 0
3.708000000000e+11 0 0 -4.0450849718747500e-01 -2.9389262614623479e-01 -4.0450849718747500e-01 -2.9389262614623479e-01 0 0
3.709000000000e+11 0 0 -4.7552825814761068e-01 -1.5450849718736945e-01 -4.7552825814761068e-01 -1.5450849718736945e-01 0 0
3.710000000000e+11 0 0 -5.0000000000000000e-01 -1.0282700248381648e-14 -5.0000000000000000e-01 -1.0282700248381648e-14 0 0
3.711000000000e+11 0 0 -4.7552825814758187e-01 1.5450849718745802e-01 -4.7552825814758187e-01 1.5450849718745802e-01 0 0
3.712000000000e+11 0 0 -4.0450849718742027e-01 2.9389262614631018e-01 -4.0450849718742027e-01 2.9389262614631018e-01 0 0
3.713000000000e+11 0 0 -2.9389262614625999e-01 4.0450849718745668e-01 -2.9389262614625999e-01 4.0450849718745668e-01 0 0
3.714000000000e+11 0 0 -1.5450849718739904e-01 4.7552825814760102e-01 -1.5450849718739904e-01 4.7552825814760102e-01 0 0
3.715000000000e+11 0 0 7.2287276613751315e-14 5.0000000000000000e-01 7.2287276613751315e-14 5.0000000000000000e-01 0 0
3.716000000000e+11 0 0 1.5450849718742843e-01 4.7552825814759148e-01 1.5450849718742843e-01 4.7552825814759148e-01 0 0
3.717000000000e+11 0 0 2.9389262614628497e-01 4.0450849718743853e-01 2.9389262614628497e-01 4.0450849718743853e-01 0 0
3.718000000000e+11 0 0 4.0450849718750526e-01 2.9389262614619316e-01 4.0450849718750526e-01 2.9389262614619316e-01 0 0
3.719000000000e+11 0 0 4.7552825814755628e-01 1.5450849718753676e-01 4.7552825814755628e-01 1.5450849718753676e-01 0 0
3.720000000000e+11 0 0 5.0000000000000000e-01 -4.1170415754268248e-14 5.0000000000000000e-01 -4.1170415754268248e-14 0 0
3.721000000000e+11 0 0 4.7552825814756600e-01 -1.5450849718750695e-01 4.7552825814756600e-01 -1.5450849718750695e-01 0 0
3.722000000000e+11 0 0 4.0450849718745685e-01 -2.9389262614625983e-01 4.0450849718745685e-01 -2.9389262614625983e-01 0 0
3.723000000000e+11 0 0 2.9389262614621836e-01 -4.0450849718748694e-01 2.9389262614621836e-01 -4.0450849718748694e-01 0 0
3.724000000000e+11 0 0 1.5450849718745824e-01 -4.7552825814758182e-01 1.5450849718745824e-01 -4.7552825814758182e-01 0 0
3.725000000000e+11 0 0 -1.0053554894785181e-14 -5.0000000000000000e-01 -1.0053554894785181e-14 -5.0000000000000000e-01 0 0
3.726000000000e+11 0 0 -1.5450849718747736e-01 -4.7552825814757560e-01 -1.5450849718747736e-01 -4.7552825814757560e-01 0 0
3.727000000000e+11 0 0 -2.9389262614632661e-01 -4.0450849718740828e-01 -2.9389262614632661e-01 -4.0450849718740828e-01 0 0
3.728000000000e+11 0 0 -4.0450849718746862e-01 -2.9389262614624351e-01 -4.0450849718746862e-01 -2.9389262614624351e-01 0 0
3.729000000000e+11 0 0 -4.7552825814757221e-01 -1.5450849718748783e-01 -4.7552825814757221e-01 -1.5450849718748783e-01 0 0
3.730000000000e+11 0 0 -5.0000000000000000e-01 9.2623531756918137e-14 -5.0000000000000000e-01 9.2623531756918137e-14 0 0
3.731000000000e+11 0 0 -4.7552825814758520e-01 1.5450849718744777e-01 -4.7552825814758520e-01 1.5450849718744777e-01 0 0
3.732000000000e+11 0 0 -4.0450849718749343e-01 2.9389262614620948e-01 -4.0450849718749343e-01 2.9389262614620948e-01 0 0
3.733000000000e+11 0 0 -2.9389262614617673e-01 4.0450849718751719e-01 -2.9389262614617673e-01 4.0450849718751719e-01 0 0
3.734000000000e+11 0 0 -1.5450849718751741e-01 4.7552825814756261e-01 -1.5450849718751741e-01 4.7552825814756261e-01 0 0
3.735000000000e+11 0 0 6.1506670897435077e-14 5.0000000000000000e-01 6.1506670897435077e-14 5.0000000000000000e-01 0 0
3.736000000000e+11 0 0 1.5450849718752629e-01 4.7552825814755972e-01 1.5450849718752629e-01 4.7552825814755972e-01 0 0
3.737000000000e+11 0 0 2.9389262614618428e-01 4.0450849718751170e-01 2.9389262614618428e-01 4.0450849718751170e-01 0 0
3.738000000000e+11 0 0 4.0450849718749887e-01 2.9389262614620193e-01 4.0450849718749887e-01 2.9389262614620193e-01 0 0
3.739000000000e+11 0 0 4.7552825814758809e-01 1.5450849718743889e-01 4.7552825814758809e-01 1.5450849718743889e-01 0 0
3.740000000000e+11 0 0 5.0000000000000000e-01 8.3297027683664026e-14 5.0000000000000000e-01 8.3297027683664026e-14 0 0
3.741000000000e+11 0 0 4.7552825814756933e-01 -1.5450849718749671e-01 4.7552825814756933e-01 -1.5450849718749671e-01 0 0
3.742000000000e+11 0 0 4.0450849718746318e-01 -2.9389262614625106e-01 4.0450849718746318e-01 -2.9389262614625106e-01 0 0
3.743000000000e+11 0 0 2.9389262614622708e-01 -4.0450849718748061e-01 2.9389262614622708e-01 -4.0450849718748061e-01 0 0
3.744000000000e+11 0 0 1.5450849718746848e-01 -4.7552825814757849e-01 1.5450849718746848e-01 -4.7552825814757849e-01 0 0
3.745000000000e+11 0 0 7.2705082153105744e-16 -5.0000000000000000e-01 7.2705082153105744e-16 -5.0000000000000000e-01 0 0
3.746000000000e+11 0 0 -1.5450849718746709e-01 -4.7552825814757893e-01 -1.5450849718746709e-01 -4.7552825814757893e-01 0 0
3.747000000000e+11 0 0 -2.9389262614622591e-01 -4.0450849718748144e-01 -2.9389262614622591e-01 -4.0450849718748144e-01 0 0
3.748000000000e+11 0 0 -4.0450849718746229e-01 -2.9389262614625228e-01 -4.0450849718746229e-01 -2.9389262614625228e-01 0 0
3.749000000000e+11 0 0 -4.7552825814760402e-01 -1.5450849718738996e-01 -4.7552825814760402e-01 -1.5450849718738996e-01 0 0
3.750000000000e+11 0 0 -5.0000000000000000e-01 -3.1843911681014124e-14 -5.0000000000000000e-01 -3.1843911681014124e-14 0 0
3.751000000000e+11 0 0 -4.7552825814755340e-01 1.5450849718754564e-01 -4.7552825814755340e-01 1.5450849718754564e-01 0 0
3.752000000000e+11 0 0 -4.0450849718743292e-01 2.9389262614629269e-01 -4.0450849718743292e-01 2.9389262614629269e-01 0 0
3.753000000000e+11 0 0 -2.9389262614627742e-01 4.0450849718744403e-01 -2.9389262614627742e-01 4.0450849718744403e-01 0 0
3.754000000000e+11 0 0 -1.5450849718741955e-01 4.7552825814759436e-01 -1.5450849718741955e-01 4.7552825814759436e-01 0 0
3.755000000000e+11 0 0 5.0726065181118839e-14 5.0000000000000000e-01 5.0726065181118839e-14 5.0000000000000000e-01 0 0
3.756000000000e+11 0 0 1.5450849718751603e-01 4.7552825814756305e-01 1.5450849718751603e-01 4.7552825814756305e-01 0 0
3.757000000000e+11 0 0 2.9389262614626754e-01 4.0450849718745124e-01 2.9389262614626754e-01 4.0450849718745124e-01 0 0
3.758000000000e+11 0 0 4.0450849718749254e-01 2.9389262614621064e-01 4.0450849718749254e-01 2.9389262614621064e-01 0 0
3.759000000000e+11 0 0 4.7552825814758476e-01 1.5450849718744913e-01 4.7552825814758476e-01 1.5450849718744913e-01 0 0
3.760000000000e+11 0 0 5.0000000000000000e-01 -1.9609204321635772e-14 5.0000000000000000e-01 -1.9609204321635772e-14 0 0
3.761000000000e+11 0 0 4.7552825814757266e-01 -1.5450849718748644e-01 4.7552825814757266e-01 -1.5450849718748644e-01 0 0
3.762000000000e+11 0 0 4.0450849718746951e-01 -2.9389262614624234e-01 4.0450849718746951e-01 -2.9389262614624234e-01 0 0
3.763000000000e+11 0 0 2.9389262614623579e-01 -4.0450849718747428e-01 2.9389262614623579e-01 -4.0450849718747428e-01 0 0
3.764000000000e+11 0 0 1.5450849718737061e-01 -4.7552825814761029e-01 1.5450849718737061e-01 -4.7552825814761029e-01 0 0
3.765000000000e+11 0 0 1.1507656537847295e-14 -5.0000000000000000e-01 1.1507656537847295e-14 -5.0000000000000000e-01 0 0
3.766000000000e+11 0 0 -1.5450849718745685e-01 -4.7552825814758226e-01 -1.5450849718745685e-01 -4.7552825814758226e-01 0 0
3.767000000000e+11 0 0 -2.9389262614630918e-01 -4.0450849718742099e-01 -2.9389262614630918e-01 -4.0450849718742099e-01 0 0
3.768000000000e+11 0 0 -4.0450849718745596e-01 -2.9389262614626099e-01 -4.0450849718745596e-01 -2.9389262614626099e-01 0 0
3.769000000000e+11 0 0 -4.7552825814756555e-01 -1.5450849718750834e-01 -4.7552825814756555e-01 -1.5450849718750834e-01 0 0
3.770000000000e+11 0 0 -5.0000000000000000e-01 7.1062320324285661e-14 -5.0000000000000000e-01 7.1062320324285661e-14 0 0
3.771000000000e+11 0 0 -4.7552825814759186e-01 1.5450849718742726e-01 -4.7552825814759186e-01 1.5450849718742726e-01 0 0
3.772000000000e+11 0 0 -4.0450849718743925e-01 2.9389262614628398e-01 -4.0450849718743925e-01 2.9389262614628398e-01 0 0
3.773000000000e+11 0 0 -2.9389262614619416e-01 4.0450849718750448e-01 -2.9389262614619416e-01 4.0450849718750448e-01 0 0
3.774000000000e+11 0 0 -1.5450849718753792e-01 4.7552825814755595e-01 -1.5450849718753792e-01 4.7552825814755595e-01 0 0
3.775000000000e+11 0 0 3.9945459464802601e-14 5.0000000000000000e-01 3.9945459464802601e-14 5.0000000000000000e-01 0 0
3.776000000000e+11 0 0 1.5450849718750578e-01 4.7552825814756639e-01 1.5450849718750578e-01 4.7552825814756639e-01 0 0
3.777000000000e+11 0 0 2.9389262614616685e-01 4.0450849718752435e-01 2.9389262614616685e-01 4.0450849718752435e-01 0 0
3.778000000000e+11 0 0 4.0450849718748622e-01 2.9389262614621936e-01 4.0450849718748622e-01 2.9389262614621936e-01 0 0
3.779000000000e+11 0 0 4.7552825814758143e-01 1.5450849718745940e-01 4.7552825814758143e-01 1.5450849718745940e-01 0 0
3.780000000000e+11 0 0 5.0000000000000000e-01 -8.8285986053195338e-15 5.0000000000000000e-01 -8.8285986053195338e-15 0 0
3.781000000000e+11 0 0 4.7552825814757599e-01 -1.5450849718747620e-01 4.7552825814757599e-01 -1.5450849718747620e-01 0 0
3.782000000000e+11 0 0 4.0450849718747584e-01 -2.9389262614623363e-01 4.0450849718747584e-01 -2.9389262614623363e-01 0 0
3.783000000000e+11 0 0 2.9389262614624451e-01 -4.0450849718746790e-01 2.9389262614624451e-01 -4.0450849718746790e-01 0 0
3.784000000000e+11 0 0 1.5450849718748899e-01 -4.7552825814757183e-01 1.5450849718748899e-01 -4.7552825814757183e-01 0 0
3.785000000000e+11 0 0 -9.1398575467452497e-14 -5.0000000000000000e-01 -9.1398575467452497e-14 -5.0000000000000000e-01 0 0
3.786000000000e+11 0 0 -1.5450849718755472e-01 -4.7552825814755045e-01 -1.5450849718755472e-01 -4.7552825814755045e-01 0 0
3.787000000000e+11 0 0 -2.9389262614620848e-01 -4.0450849718749415e-01 -2.9389262614620848e-01 -4.0450849718749415e-01 0 0
3.788000000000e+11 0 0 -4.0450849718751647e-01 -2.9389262614617773e-01 -4.0450849718751647e-01 -2.9389262614617773e-01 0 0
3.789000000000e+11 0 0 -4.7552825814759736e-01 -1.5450849718741047e-01 -4.7552825814759736e-01 -1.5450849718741047e-01 0 0
3.790000000000e+11 0 0 -5.0000000000000000e-01 -5.3405123113646600e-14 -5.0000000000000000e-01 -5.3405123113646600e-14 0 0
3.791000000000e+11 0 0 -4.7552825814756006e-01 1.5450849718752513e-01 -4.7552825814756006e-01 1.5450849718752513e-01 0 0
3.792000000000e+11 0 0 -4.0450849718744558e-01 2.9389262614627526e-01 -4.0450849718744558e-01 2.9389262614627526e-01 0 0
3.793000000000e+11 0 0 -2.9389262614620287e-01 4.0450849718749815e-01 -2.9389262614620287e-01 4.0450849718749815e-01 0 0
3.794000000000e+11 0 0 -1.5450849718744006e-01 4.7552825814758770e-01 -1.5450849718744006e-01 4.7552825814758770e-01 0 0
3.795000000000e+11 0 0 2.9164853748486363e-14 5.0000000000000000e-01 2.9164853748486363e-14 5.0000000000000000e-01 0 0
3.796000000000e+11 0 0 1.5450849718749554e-01 4.7552825814756972e-01 1.5450849718749554e-01 4.7552825814756972e-01 0 0
3.797000000000e+11 0 0 2.9389262614625011e-01 4.0450849718746390e-01 2.9389262614625011e-01 4.0450849718746390e-01 0 0
3.798000000000e+11 0 0 4.0450849718747989e-01 2.9389262614622808e-01 4.0450849718747989e-01 2.9389262614622808e-01 0 0
3.799000000000e+11 0 0 4.7552825814757810e-01 1.5450849718746965e-01 4.7552825814757810e-01 1.5450849718746965e-01 0 0
3.800000000000e+11 0 0 5.0000000000000000e-01 1.9520071109967049e-15 5.0000000000000000e-01 1.9520071109967049e-15 0 0
3.801000000000e+11 0 0 4.7552825814754418e-01 -1.5450849718757406e-01 4.7552825814754418e-01 -1.5450849718757406e-01 0 0
3.802000000000e+11 0 0 4.0450849718748216e-01 -2.9389262614622491e-01 4.0450849718748216e-01 -2.9389262614622491e-01 0 0
3.803000000000e+11 0 0 2.9389262614625322e-01 -4.0450849718746157e-01 2.9389262614625322e-01 -4.0450849718746157e-01 0 0
3.804000000000e+11 0 0 1.5450849718739113e-01 -4.7552825814760363e-01 1.5450849718739113e-01 -4.7552825814760363e-01 0 0
3.805000000000e+11 0 0 3.3068867970479771e-14 -5.0000000000000000e-01 3.3068867970479771e-14 -5.0000000000000000e-01 0 0
3.806000000000e+11 0 0 -1.5450849718743634e-01 -4.7552825814758892e-01 -1.5450849718743634e-01 -4.7552825814758892e-01 0 0
3.807000000000e+11 0 0 -2.9389262614629169e-01 -4.0450849718743365e-01 -2.9389262614629169e-01 -4.0450849718743365e-01 0 0
3.808000000000e+11 0 0 -4.0450849718744331e-01 -2.9389262614627842e-01 -4.0450849718744331e-01 -2.9389262614627842e-01 0 0
3.809000000000e+11 0 0 -4.7552825814759403e-01 -1.5450849718742071e-01 -4.7552825814759403e-01 -1.5450849718742071e-01 0 0
3.810000000000e+11 0 0 -5.0000000000000000e-01 4.9501108891653192e-14 -5.0000000000000000e-01 4.9501108891653192e-14 0 0
3.811000000000e+11 0 0 -4.7552825814759853e-01 1.5450849718740675e-01 -4.7552825814759853e-01 1.5450849718740675e-01 0 0
3.812000000000e+11 0 0 -4.0450849718745191e-01 2.9389262614626654e-01 -4.0450849718745191e-01 2.9389262614626654e-01 0 0
3.813000000000e+11 0 0 -2.9389262614621164e-01 4.0450849718749182e-01 -2.9389262614621164e-01 4.0450849718749182e-01 0 0
3.814000000000e+11 0 0 -1.5450849718755844e-01 4.7552825814754923e-01 -1.5450849718755844e-01 4.7552825814754923e-01 0 0
3.815000000000e+11 0 0 1.8384248032170125e-14 5.0000000000000000e-01 1.8384248032170125e-14 5.0000000000000000e-01 0 0
3.816000000000e+11 0 0 1.5450849718748527e-01 4.7552825814757305e-01 1.5450849718748527e-01 4.7552825814757305e-01 0 0
3.817000000000e+11 0 0 2.9389262614624134e-01 4.0450849718747023e-01 2.9389262614624134e-01 4.0450849718747023e-01 0 0
3.818000000000e+11 0 0 4.0450849718747356e-01 2.9389262614623679e-01 4.0450849718747356e-01 2.9389262614623679e-01 0 0
3.819000000000e+11 0 0 4.7552825814757477e-01 1.5450849718747992e-01 4.7552825814757477e-01 1.5450849718747992e-01 0 0
3.820000000000e+11 0 0 5.0000000000000000e-01 1.2732612827312944e-14 5.0000000000000000e-01 1.2732612827312944e-14 0 0
3.821000000000e+11 0 0 4.7552825814758265e-01 -1.5450849718745568e-01 4.7552825814758265e-01 -1.5450849718745568e-01 0 0
3.822000000000e+11 0 0 4.0450849718742171e-01 -2.9389262614630818e-01 4.0450849718742171e-01 -2.9389262614630818e-01 0 0
3.823000000000e+11 0 0 2.9389262614626199e-01 -4.0450849718745524e-01 2.9389262614626199e-01 -4.0450849718745524e-01 0 0
3.824000000000e+11 0 0 1.5450849718750950e-01 -4.7552825814756516e-01 1.5450849718750950e-01 -4.7552825814756516e-01 0 0
3.825000000000e+11 0 0 -6.9837364034820021e-14 -5.0000000000000000e-01 -6.9837364034820021e-14 -5.0000000000000000e-01 0 0
3.826000000000e+11 0 0 -1.5450849718753421e-01 -4.7552825814755711e-01 -1.5450849718753421e-01 -4.7552825814755711e-01 0 0
3.827000000000e+11 0 0 -2.9389262614619099e-01 -4.0450849718750681e-01 -2.9389262614619099e-01 -4.0450849718750681e-01 0 0
3.828000000000e+11 0 0 -4.0450849718750381e-01 -2.9389262614619516e-01 -4.0450849718750381e-01 -2.9389262614619516e-01 0 0
3.829000000000e+11 0 0 -4.7552825814759070e-01 -1.5450849718743095e-01 -4.7552825814759070e-01 -1.5450849718743095e-01 0 0
3.830000000000e+11 0 0 -5.0000000000000000e-01 3.8720503175336954e-14 -5.0000000000000000e-01 3.8720503175336954e-14 0 0
3.831000000000e+11 0 0 -4.7552825814756672e-01 1.5450849718750462e-01 -4.7552825814756672e-01 1.5450849718750462e-01 0 0
3.832000000000e+11 0 0 -4.0450849718745824e-01 2.9389262614625783e-01 -4.0450849718745824e-01 2.9389262614625783e-01 0 0
3.833000000000e+11 0 0 -2.9389262614622036e-01 4.0450849718748549e-01 -2.9389262614622036e-01 4.0450849718748549e-01 0 0
3.834000000000e+11 0 0 -1.5450849718746057e-01 4.7552825814758104e-01 -1.5450849718746057e-01 4.7552825814758104e-01 0 0
3.835000000000e+11 0 0 7.6036423158538853e-15 5.0000000000000000e-01 7.6036423158538853e-15 5.0000000000000000e-01 0 0
3.836000000000e+11 0 0 1.5450849718747503e-01 4.7552825814757638e-01 1.5450849718747503e-01 4.7552825814757638e-01 0 0
3.837000000000e+11 0 0 2.9389262614623263e-01 4.0450849718747656e-01 2.9389262614623263e-01 4.0450849718747656e-01 0 0
3.838000000000e+11 0 0 4.0450849718753401e-01 2.9389262614615352e-01 4.0450849718753401e-01 2.9389262614615352e-01 0 0
3.839000000000e+11 0 0 4.7552825814757144e-01 1.5450849718749016e-01 4.7552825814757144e-01 1.5450849718749016e-01 0 0
3.840000000000e+11 0 0 5.0000000000000000e-01 2.3513218543629180e-14 5.0000000000000000e-01 2.3513218543629180e-14 0 0
3.841000000000e+11 0 0 4.7552825814755084e-01 -1.5450849718755355e-01 4.7552825814755084e-01 -1.5450849718755355e-01 0 0
3.842000000000e+11 0 0 4.0450849718749482e-01 -2.9389262614620748e-01 4.0450849718749482e-01 -2.9389262614620748e-01 0 0
3.843000000000e+11 0 0 2.9389262614627071e-01 -4.0450849718744891e-01 2.9389262614627071e-01 -4.0450849718744891e-01 0 0
3.844000000000e+11 0 0 1.5450849718741164e-01 -4.7552825814759697e-01 1.5450849718741164e-01 -4.7552825814759697e-01 0 0
3.845000000000e+11 0 0 5.4630079403112247e-14 -5.0000000000000000e-01 5.4630079403112247e-14 -5.0000000000000000e-01 0 0
3.846000000000e+11 0 0 -1.5450849718752396e-01 -4.7552825814756045e-01 -1.5450849718752396e-01 -4.7552825814756045e-01 0 0
3.847000000000e+11 0 0 -2.9389262614627426e-01 -4.0450849718744630e-01 -2.9389262614627426e-01 -4.0450849718744630e-01 0 0
3.848000000000e+11 0 0 -4.0450849718743065e-01 -2.9389262614629585e-01 -4.0450849718743065e-01 -2.9389262614629585e-01 0 0
3.849000000000e+11 0 0 -4.7552825814758737e-01 -1.5450849718744122e-01 -4.7552825814758737e-01 -1.5450849718744122e-01 0 0
3.850000000000e+11 0 0 -5.0000000000000000e-01 2.7939897459020716e-14 -5.0000000000000000e-01 2.7939897459020716e-14 0 0
3.851000000000e+11 0 0 -4.7552825814757005e-01 1.5450849718749438e-01 -4.7552825814757005e-01 1.5450849718749438e-01 0 0
3.852000000000e+11 0 0 -4.0450849718746462e-01 2.9389262614624911e-01 -4.0450849718746462e-01 2.9389262614624911e-01 0 0
3.853000000000e+11 0 0 -2.9389262614622907e-01 4.0450849718747917e-01 -2.9389262614622907e-01 4.0450849718747917e-01 0 0
3.854000000000e+11 0 0 -1.5450849718747081e-01 4.7552825814757771e-01 -1.5450849718747081e-01 4.7552825814757771e-01 0 0
3.855000000000e+11 0 0 -3.1769634004623522e-15 5.0000000000000000e-01 -3.1769634004623522e-15 5.0000000000000000e-01 0 0
3.856000000000e+11 0 0 1.5450849718746476e-01 4.7552825814757971e-01 1.5450849718746476e-01 4.7552825814757971e-01 0 0
3.857000000000e+11 0 0 2.9389262614622391e-01 4.0450849718748288e-01 2.9389262614622391e-01 4.0450849718748288e-01 0 0
3.858000000000e+11 0 0 4.0450849718746085e-01 2.9389262614625422e-01 4.0450849718746085e-01 2.9389262614625422e-01 0 0
3.859000000000e+11 0 0 4.7552825814760324e-01 1.5450849718739229e-01 4.7552825814760324e-01 1.5450849718739229e-01 0 0
3.860000000000e+11 0 0 5.0000000000000000e-01 3.4293824259945418e-14 5.0000000000000000e-01 3.4293824259945418e-14 0 0
3.861000000000e+11 0 0 4.7552825814758931e-01 -1.5450849718743517e-01 4.7552825814758931e-01 -1.5450849718743517e-01 0 0
3.862000000000e+11 0 0 4.0450849718743437e-01 -2.9389262614629075e-01 4.0450849718743437e-01 -2.9389262614629075e-01 0 0
3.863000000000e+11 0 0 2.9389262614618744e-01 -4.0450849718750942e-01 2.9389262614618744e-01 -4.0450849718750942e-01 0 0
3.864000000000e+11 0 0 1.5450849718753001e-01 -4.7552825814755850e-01 1.5450849718753001e-01 -4.7552825814755850e-01 0 0
3.865000000000e+11 0 0 -4.8276152602187545e-14 -5.0000000000000000e-01 -4.8276152602187545e-14 -5.0000000000000000e-01 0 0
3.866000000000e+11 0 0 -1.5450849718751369e-01 -4.7552825814756378e-01 -1.5450849718751369e-01 -4.7552825814756378e-01 0 0
3.867000000000e+11 0 0 -2.9389262614626555e-01 -4.0450849718745263e-01 -2.9389262614626555e-01 -4.0450849718745263e-01 0 0
3.868000000000e+11 0 0 -4.0450849718749110e-01 -2.9389262614621259e-01 -4.0450849718749110e-01 -2.9389262614621259e-01 0 0
3.869000000000e+11 0 0 -4.7552825814758404e-01 -1.5450849718745147e-01 -4.7552825814758404e-01 -1.5450849718745147e-01 0 0
3.870000000000e+11 0 0 -5.0000000000000000e-01 1.7159291742704478e-14 -5.0000000000000000e-01 1.7159291742704478e-14 0 0
3.871000000000e+11 0 0 -4.7552825814757338e-01 1.5450849718748411e-01 -4.7552825814757338e-01 1.5450849718748411e-01 0 0
3.872000000000e+11 0 0 -4.0450849718747095e-01 2.9389262614624040e-01 -4.0450849718747095e-01 2.9389262614624040e-01 0 0
3.873000000000e+11 0 0 -2.9389262614623779e-01 4.0450849718747284e-01 -2.9389262614623779e-01 4.0450849718747284e-01 0 0
3.874000000000e+11 0 0 -1.5450849718748108e-01 4.7552825814757438e-01 -1.5450849718748108e-01 4.7552825814757438e-01 0 0
3.875000000000e+11 0 0 9.9729268604837441e-14 5.0000000000000000e-01 9.9729268604837441e-14 5.0000000000000000e-01 0 0
3.876000000000e+11 0 0 1.5450849718745452e-01 4.7552825814758304e-01 1.5450849718745452e-01 4.7552825814758304e-01 0 0
3.877000000000e+11 0 0 2.9389262614621520e-01 4.0450849718748921e-01 2.9389262614621520e-01 4.0450849718748921e-01 0 0
3.878000000000e+11 0 0 4.0450849718752135e-01 2.9389262614617101e-01 4.0450849718752135e-01 2.9389262614617101e-01 0 0
3.879000000000e+11 0 0 4.7552825814756478e-01 1.5450849718751067e-01 4.7552825814756478e-01 1.5450849718751067e-01 0 0
3.880000000000e+11 0 0 5.0000000000000000e-01 -6.8612407745354368e-14 5.0000000000000000e-01 -6.8612407745354368e-14 0 0
3.881000000000e+11 0 0 4.7552825814755750e-01 -1.5450849718753304e-01 4.7552825814755750e-01 -1.5450849718753304e-01 0 0
3.882000000000e+11 0 0 4.0450849718750753e-01 -2.9389262614619005e-01 4.0450849718750753e-01 -2.9389262614619005e-01 0 0
3.883000000000e+11 0 0 2.9389262614619616e-01 -4.0450849718750309e-01 2.9389262614619616e-01 -4.0450849718750309e-01 0 0
3.884000000000e+11 0 0 1.5450849718743212e-01 -4.7552825814759031e-01 1.5450849718743212e-01 -4.7552825814759031e-01 0 0
3.885000000000e+11 0 0 7.6191290835744723e-14 -5.0000000000000000e-01 7.6191290835744723e-14 -5.0000000000000000e-01 0 0
3.886000000000e+11 0 0 -1.5450849718750345e-01 -4.7552825814756711e-01 -1.5450849718750345e-01 -4.7552825814756711e-01 0 0
3.887000000000e+11 0 0 -2.9389262614625683e-01 -4.0450849718745896e-01 -2.9389262614625683e-01 -4.0450849718745896e-01 0 0
3.888000000000e+11 0 0 -4.0450849718748477e-01 -2.9389262614622136e-01 -4.0450849718748477e-01 -2.9389262614622136e-01 0 0
3.889000000000e+11 0 0 -4.7552825814758071e-01 -1.5450849718746174e-01 -4.7552825814758071e-01 -1.5450849718746174e-01 0 0
3.890000000000e+11 0 0 -5.0000000000000000e-01 6.3786860263882385e-15 -5.0000000000000000e-01 6.3786860263882385e-15 0 0
3.891000000000e+11 0 0 -4.7552825814757677e-01 1.5450849718747386e-01 -4.7552825814757677e-01 1.5450849718747386e-01 0 0
3.892000000000e+11 0 0 -4.0450849718747728e-01 2.9389262614623168e-01 -4.0450849718747728e-01 2.9389262614623168e-01 0 0
3.893000000000e+11 0 0 -2.9389262614624651e-01 4.0450849718746651e-01 -2.9389262614624651e-01 4.0450849718746651e-01 0 0
3.894000000000e+11 0 0 -1.5450849718749132e-01 4.7552825814757105e-01 -1.5450849718749132e-01 4.7552825814757105e-01 0 0
3.895000000000e+11 0 0 -2.4738174833094827e-14 5.0000000000000000e-01 -2.4738174833094827e-14 5.0000000000000000e-01 0 0
3.896000000000e+11 0 0 1.5450849718755238e-01 4.7552825814755123e-01 1.5450849718755238e-01 4.7552825814755123e-01 0 0
3.897000000000e+11 0 0 2.9389262614620648e-01 4.0450849718749560e-01 2.9389262614620648e-01 4.0450849718749560e-01 0 0
3.898000000000e+11 0 0 4.0450849718744819e-01 2.9389262614627171e-01 4.0450849718744819e-01 2.9389262614627171e-01 0 0
3.899000000000e+11 0 0 4.7552825814759658e-01 1.5450849718741280e-01 4.7552825814759658e-01 1.5450849718741280e-01 0 0
3.900000000000e+11 0 0 5.0000000000000000e-01 5.5855035692577894e-14 5.0000000000000000e-01 5.5855035692577894e-14 0 0
3.901000000000e+11 0 0 4.7552825814759597e-01 -1.5450849718741466e-01 4.7552825814759597e-01 -1.5450849718741466e-01 0 0
3.902000000000e+11 0 0 4.0450849718744702e-01 -2.9389262614627326e-01 4.0450849718744702e-01 -2.9389262614627326e-01 0 0
3.903000000000e+11 0 0 2.9389262614620487e-01 -4.0450849718749676e-01 2.9389262614620487e-01 -4.0450849718749676e-01 0 0
3.904000000000e+11 0 0 1.5450849718744239e-01 -4.7552825814758698e-01 1.5450849718744239e-01 -4.7552825814758698e-01 0 0
3.905000000000e+11 0 0 -2.6714941169555069e-14 -5.0000000000000000e-01 -2.6714941169555069e-14 -5.0000000000000000e-01 0 0
3.906000000000e+11 0 0 -1.5450849718749321e-01 -4.7552825814757044e-01 -1.5450849718749321e-01 -4.7552825814757044e-01 0 0
3.907000000000e+11 0 0 -2.9389262614624811e-01 -4.0450849718746534e-01 -2.9389262614624811e-01 -4.0450849718746534e-01 0 0
3.908000000000e+11 0 0 -4.0450849718747844e-01 -2.9389262614623007e-01 -4.0450849718747844e-01 -2.9389262614623007e-01 0 0
3.909000000000e+11 0 0 -4.7552825814761246e-01 -1.5450849718736387e-01 -4.7552825814761246e-01 -1.5450849718736387e-01 0 0
3.910000000000e+11 0 0 -5.0000000000000000e-01 -4.4019196899279995e-15 -5.0000000000000000e-01 -4.4019196899279995e-15 0 0
3.911000000000e+11 0 0 -4.7552825814758004e-01 1.5450849718746359e-01 -4.7552825814758004e-01 1.5450849718746359e-01 0 0
3.912000000000e+11 0 0 -4.0450849718741677e-01 2.9389262614631489e-01 -4.0450849718741677e-01 2.9389262614631489e-01 0 0
3.913000000000e+11 0 0 -2.9389262614625522e-01 4.0450849718746013e-01 -2.9389262614625522e-01 4.0450849718746013e-01 0 0
3.914000000000e+11 0 0 -1.5450849718750156e-01 4.7552825814756772e-01 -1.5450849718750156e-01 4.7552825814756772e-01 0 0
3.915000000000e+11 0 0 7.8168057172204965e-14 5.0000000000000000e-01 7.8168057172204965e-14 5.0000000000000000e-01 0 0
3.916000000000e+11 0 0 1.5450849718743401e-01 4.7552825814758970e-01 1.5450849718743401e-01 4.7552825814758970e-01 0 0
3.917000000000e+11 0 0 2.9389262614628975e-01 4.0450849718743509e-01 2.9389262614628975e-01 4.0450849718743509e-01 0 0
3.918000000000e+11 0 0 4.0450849718750870e-01 2.9389262614618844e-01 4.0450849718750870e-01 2.9389262614618844e-01 0 0
3.919000000000e+11 0 0 4.7552825814755811e-01 1.5450849718753118e-01 4.7552825814755811e-01 1.5450849718753118e-01 0 0
3.920000000000e+11 0 0 5.0000000000000000e-01 -4.7051196312721898e-14 5.0000000000000000e-01 -4.7051196312721898e-14 0 0
3.921000000000e+11 0 0 4.7552825814756416e-01 -1.5450849718751253e-01 4.7552825814756416e-01 -1.5450849718751253e-01 0 0
3.922000000000e+11 0 0 4.0450849718752019e-01 -2.9389262614617256e-01 4.0450849718752019e-01 -2.9389262614617256e-01 0 0
3.923000000000e+11 0 0 2.9389262614621359e-01 -4.0450849718749038e-01 2.9389262614621359e-01 -4.0450849718749038e-01 0 0
3.924000000000e+11 0 0 1.5450849718745263e-01 -4.7552825814758365e-01 1.5450849718745263e-01 -4.7552825814758365e-01 0 0
3.925000000000e+11 0 0 -1.5934335453238828e-14 -5.0000000000000000e-01 -1.5934335453238828e-14 -5.0000000000000000e-01 0 0
3.926000000000e+11 0 0 -1.5450849718748294e-01 -4.7552825814757377e-01 -1.5450849718748294e-01 -4.7552825814757377e-01 0 0
3.927000000000e+11 0 0 -2.9389262614623940e-01 -4.0450849718747167e-01 -2.9389262614623940e-01 -4.0450849718747167e-01 0 0
3.928000000000e+11 0 0 -4.0450849718747212e-01 -2.9389262614623879e-01 -4.0450849718747212e-01 -2.9389262614623879e-01 0 0
3.929000000000e+11 0 0 -4.7552825814757405e-01 -1.5450849718748222e-01 -4.7552825814757405e-01 -1.5450849718748222e-01 0 0
3.930000000000e+11 0 0 -5.0000000000000000e-01 -1.5182525406244239e-14 -5.0000000000000000e-01 -1.5182525406244239e-14 0 0
3.931000000000e+11 0 0 -4.7552825814758343e-01 1.5450849718745335e-01 -4.7552825814758343e-01 1.5450849718745335e-01 0 0
3.932000000000e+11 0 0 -4.0450849718748993e-01 2.9389262614621420e-01 -4.0450849718748993e-01 2.9389262614621420e-01 0 0
3.933000000000e+11 0 0 -2.9389262614617195e-01 4.0450849718752063e-01 -2.9389262614617195e-01 4.0450849718752063e-01 0 0
3.934000000000e+11 0 0 -1.5450849718751183e-01 4.7552825814756439e-01 -1.5450849718751183e-01 4.7552825814756439e-01 0 0
3.935000000000e+11 0 0 -4.6299386265727303e-14 5.0000000000000000e-01 -4.6299386265727303e-14 5.0000000000000000e-01 0 0
3.936000000000e+11 0 0 1.5450849718753187e-01 4.7552825814755789e-01 1.5450849718753187e-01 4.7552825814755789e-01 0 0
3.937000000000e+11 0 0 2.9389262614618905e-01 4.0450849718750825e-01 2.9389262614618905e-01 4.0450849718750825e-01 0 0
3.938000000000e+11 0 0 4.0450849718750237e-01 2.9389262614619716e-01 4.0450849718750237e-01 2.9389262614619716e-01 0 0
3.939000000000e+11 0 0 4.7552825814758992e-01 1.5450849718743329e-01 4.7552825814758992e-01 1.5450849718743329e-01 0 0
3.940000000000e+11 0 0 5.0000000000000000e-01 -3.6270590596405660e-14 5.0000000000000000e-01 -3.6270590596405660e-14 0 0
3.941000000000e+11 0 0 4.7552825814756750e-01 -1.5450849718750229e-01 4.7552825814756750e-01 -1.5450849718750229e-01 0 0
3.942000000000e+11 0 0 4.0450849718745974e-01 -2.9389262614625583e-01 4.0450849718745974e-01 -2.9389262614625583e-01 0 0
3.943000000000e+11 0 0 2.9389262614622230e-01 -4.0450849718748405e-01 2.9389262614622230e-01 -4.0450849718748405e-01 0 0
3.944000000000e+11 0 0 1.5450849718746290e-01 -4.7552825814758032e-01 1.5450849718746290e-01 -4.7552825814758032e-01 0 0
3.945000000000e+11 0 0 -5.1537297369225916e-15 -5.0000000000000000e-01 -5.1537297369225916e-15 -5.0000000000000000e-01 0 0
3.946000000000e+11 0 0 -1.5450849718758081e-01 -4.7552825814754196e-01 -1.5450849718758081e-01 -4.7552825814754196e-01 0 0
3.947000000000e+11 0 0 -2.9389262614623068e-01 -4.0450849718747800e-01 -2.9389262614623068e-01 -4.0450849718747800e-01 0 0
3.948000000000e+11 0 0 -4.0450849718746579e-01 -2.9389262614624750e-01 -4.0450849718746579e-01 -2.9389262614624750e-01 0 0
3.949000000000e+11 0 0 -4.7552825814760580e-01 -1.5450849718738435e-01 -4.7552825814760580e-01 -1.5450849718738435e-01 0 0
3.950000000000e+11 0 0 -5.0000000000000000e-01 -2.5963131122560477e-14 -5.0000000000000000e-01 -2.5963131122560477e-14 0 0
3.951000000000e+11 0 0 -4.7552825814758676e-01 1.5450849718744311e-01 -4.7552825814758676e-01 1.5450849718744311e-01 0 0
3.952000000000e+11 0 0 -4.0450849718742948e-01 2.9389262614629746e-01 -4.0450849718742948e-01 2.9389262614629746e-01 0 0
3.953000000000e+11 0 0 -2.9389262614627265e-01 4.0450849718744747e-01 -2.9389262614627265e-01 4.0450849718744747e-01 0 0
3.954000000000e+11 0 0 -1.5450849718741397e-01 4.7552825814759619e-01 -1.5450849718741397e-01 4.7552825814759619e-01 0 0
3.955000000000e+11 0 0 5.6606845739572489e-14 5.0000000000000000e-01 5.6606845739572489e-14 5.0000000000000000e-01 0 0
3.956000000000e+11 0 0 1.5450849718741350e-01 4.7552825814759636e-01 1.5450849718741350e-01 4.7552825814759636e-01 0 0
3.957000000000e+11 0 0 2.9389262614627232e-01 4.0450849718744775e-01 2.9389262614627232e-01 4.0450849718744775e-01 0 0
3.958000000000e+11 0 0 4.0450849718749599e-01 2.9389262614620587e-01 4.0450849718749599e-01 2.9389262614620587e-01 0 0
3.959000000000e+11 0 0 4.7552825814755145e-01 1.5450849718755166e-01 4.7552825814755145e-01 1.5450849718755166e-01 0 0
3.960000000000e+11 0 0 5.0000000000000000e-01 -2.5489984880089419e-14 5.0000000000000000e-01 -2.5489984880089419e-14 0 0
3.961000000000e+11 0 0 4.7552825814757083e-01 -1.5450849718749204e-01 4.7552825814757083e-01 -1.5450849718749204e-01 0 0
3.962000000000e+11 0 0 4.0450849718746607e-01 -2.9389262614624712e-01 4.0450849718746607e-01 -2.9389262614624712e-01 0 0
3.963000000000e+11 0 0 2.9389262614623107e-01 -4.0450849718747772e-01 2.9389262614623107e-01 -4.0450849718747772e-01 0 0
3.964000000000e+11 0 0 1.5450849718747314e-01 -4.7552825814757699e-01 1.5450849718747314e-01 -4.7552825814757699e-01 0 0
3.965000000000e+11 0 0 5.6268759793936472e-15 -5.0000000000000000e-01 5.6268759793936472e-15 -5.0000000000000000e-01 0 0
3.966000000000e+11 0 0 -1.5450849718746243e-01 -4.7552825814758043e-01 -1.5450849718746243e-01 -4.7552825814758043e-01 0 0
3.967000000000e+11 0 0 -2.9389262614631390e-01 -4.0450849718741749e-01 -2.9389262614631390e-01 -4.0450849718741749e-01 0 0
3.968000000000e+11 0 0 -4.0450849718745946e-01 -2.9389262614625622e-01 -4.0450849718745946e-01 -2.9389262614625622e-01 0 0
3.969000000000e+11 0 0 -4.7552825814756733e-01 -1.5450849718750273e-01 -4.7552825814756733e-01 -1.5450849718750273e-01 0 0
3.970000000000e+11 0 0 -5.0000000000000000e-01 7.6943100882739312e-14 -5.0000000000000000e-01 7.6943100882739312e-14 0 0
3.971000000000e+11 0 0 -4.7552825814759009e-01 1.5450849718743284e-01 -4.7552825814759009e-01 1.5450849718743284e-01 0 0
3.972000000000e+11 0 0 -4.0450849718750259e-01 2.9389262614619677e-01 -4.0450849718750259e-01 2.9389262614619677e-01 0 0
3.973000000000e+11 0 0 -2.9389262614618944e-01 4.0450849718750798e-01 -2.9389262614618944e-01 4.0450849718750798e-01 0 0
3.974000000000e+11 0 0 -1.5450849718753235e-01 4.7552825814755773e-01 -1.5450849718753235e-01 4.7552825814755773e-01 0 0
3.975000000000e+11 0 0 4.5826240023256251e-14 5.0000000000000000e-01 4.5826240023256251e-14 5.0000000000000000e-01 0 0
3.976000000000e+11 0 0 1.5450849718751139e-01 4.7552825814756455e-01 1.5450849718751139e-01 4.7552825814756455e-01 0 0
3.977000000000e+11 0 0 2.9389262614617162e-01 4.0450849718752091e-01 2.9389262614617162e-01 4.0450849718752091e-01 0 0
3.978000000000e+11 0 0 4.0450849718748966e-01 2.9389262614621459e-01 4.0450849718748966e-01 2.9389262614621459e-01 0 0
3.979000000000e+11 0 0 4.7552825814758326e-01 1.5450849718745380e-01 4.7552825814758326e-01 1.5450849718745380e-01 0 0
3.980000000000e+11 0 0 5.0000000000000000e-01 -1.4709379163773181e-14 5.0000000000000000e-01 -1.4709379163773181e-14 0 0
3.981000000000e+11 0 0 4.7552825814757416e-01 -1.5450849718748177e-01 4.7552825814757416e-01 -1.5450849718748177e-01 0 0
3.982000000000e+11 0 0 4.0450849718747239e-01 -2.9389262614623840e-01 4.0450849718747239e-01 -2.9389262614623840e-01 0 0
3.983000000000e+11 0 0 2.9389262614614781e-01 -4.0450849718753823e-01 2.9389262614614781e-01 -4.0450849718753823e-01 0 0
3.984000000000e+11 0 0 1.5450849718748338e-01 -4.7552825814757366e-01 1.5450849718748338e-01 -4.7552825814757366e-01 0 0
3.985000000000e+11 0 0 1.6407481695709886e-14 -5.0000000000000000e-01 1.6407481695709886e-14 -5.0000000000000000e-01 0 0
3.986000000000e+11 0 0 -1.5450849718756032e-01 -4.7552825814754868e-01 -1.5450849718756032e-01 -4.7552825814754868e-01 0 0
3.987000000000e+11 0 0 -2.9389262614621320e-01 -4.0450849718749066e-01 -2.9389262614621320e-01 -4.0450849718749066e-01 0 0
3.988000000000e+11 0 0 -4.0450849718745308e-01 -2.9389262614626493e-01 -4.0450849718745308e-01 -2.9389262614626493e-01 0 0
3.989000000000e+11 0 0 -4.7552825814759914e-01 -1.5450849718740486e-01 -4.7552825814759914e-01 -1.5450849718740486e-01 0 0
3.990000000000e+11 0 0 -5.0000000000000000e-01 -4.7524342555192950e-14 -5.0000000000000000e-01 -4.7524342555192950e-14 0 0
3.991000000000e+11 0 0 -4.7552825814755828e-01 1.5450849718753071e-01 -4.7552825814755828e-01 1.5450849718753071e-01 0 0
3.992000000000e+11 0 0 -4.0450849718744214e-01 2.9389262614628003e-01 -4.0450849718744214e-01 2.9389262614628003e-01 0 0
3.993000000000e+11 0 0 -2.9389262614629014e-01 4.0450849718743481e-01 -2.9389262614629014e-01 4.0450849718743481e-01 0 0
3.994000000000e+11 0 0 -1.5450849718743445e-01 4.7552825814758953e-01 -1.5450849718743445e-01 4.7552825814758953e-01 0 0
3.995000000000e+11 0 0 3.5045634306940013e-14 5.0000000000000000e-01 3.5045634306940013e-14 5.0000000000000000e-01 0 0
3.996000000000e+11 0 0 1.5450849718750112e-01 4.7552825814756788e-01 1.5450849718750112e-01 4.7552825814756788e-01 0 0
3.997000000000e+11 0 0 2.9389262614625483e-01 4.0450849718746040e-01 2.9389262614625483e-01 4.0450849718746040e-01 0 0
3.998000000000e+11 0 0 4.0450849718748333e-01 2.9389262614622330e-01 4.0450849718748333e-01 2.9389262614622330e-01 0 0
3.999000000000e+11 0 0 4.7552825814757993e-01 1.5450849718746407e-01 4.7552825814757993e-01 1.5450849718746407e-01 0 0
4.000000000000e+11 0 0 5.0000000000000000e-01 -3.9287734474569439e-15 5.0000000000000000e-01 -3.9287734474569439e-15 0 0
4.001000000000e+11 0 0 4.7552825814757749e-01 -1.5450849718747153e-01 4.7552825814757749e-01 -1.5450849718747153e-01 0 0
4.002000000000e+11 0 0 4.0450849718747872e-01 -2.9389262614622969e-01 4.0450849718747872e-01 -2.9389262614622969e-01 0 0
4.003000000000e+11 0 0 2.9389262614624850e-01 -4.0450849718746507e-01 2.9389262614624850e-01 -4.0450849718746507e-01 0 0
4.004000000000e+11 0 0 1.5450849718738552e-01 -4.7552825814760546e-01 1.5450849718738552e-01 -4.7552825814760546e-01 0 0
4.005000000000e+11 0 0 2.7188087412026124e-14 -5.0000000000000000e-01 2.7188087412026124e-14 -5.0000000000000000e-01 0 0
4.006000000000e+11 0 0 -1.5450849718744195e-01 -4.7552825814758709e-01 -1.5450849718744195e-01 -4.7552825814758709e-01 0 0
4.007000000000e+11 0 0 -2.9389262614629647e-01 -4.0450849718743020e-01 -2.9389262614629647e-01 -4.0450849718743020e-01 0 0
4.008000000000e+11 0 0 -4.0450849718744675e-01 -2.9389262614627365e-01 -4.0450849718744675e-01 -2.9389262614627365e-01 0 0
4.009000000000e+11 0 0 -4.7552825814756067e-01 -1.5450849718752324e-01 -4.7552825814756067e-01 -1.5450849718752324e-01 0 0
4.010000000000e+11 0 0 -5.0000000000000000e-01 5.5381889450106842e-14 -5.0000000000000000e-01 5.5381889450106842e-14 0 0
4.011000000000e+11 0 0 -4.7552825814759675e-01 1.5450849718741233e-01 -4.7552825814759675e-01 1.5450849718741233e-01 0 0
4.012000000000e+11 0 0 -4.0450849718744847e-01 2.9389262614627132e-01 -4.0450849718744847e-01 2.9389262614627132e-01 0 0
4.013000000000e+11 0 0 -2.9389262614620687e-01 4.0450849718749526e-01 -2.9389262614620687e-01 4.0450849718749526e-01 0 0
4.014000000000e+11 0 0 -1.5450849718755283e-01 4.7552825814755106e-01 -1.5450849718755283e-01 4.7552825814755106e-01 0 0
4.015000000000e+11 0 0 2.4265028590623772e-14 5.0000000000000000e-01 2.4265028590623772e-14 5.0000000000000000e-01 0 0
4.016000000000e+11 0 0 1.5450849718749088e-01 4.7552825814757121e-01 1.5450849718749088e-01 4.7552825814757121e-01 0 0
4.017000000000e+11 0 0 2.9389262614624612e-01 4.0450849718746679e-01 2.9389262614624612e-01 4.0450849718746679e-01 0 0
4.018000000000e+11 0 0 4.0450849718747700e-01 2.9389262614623202e-01 4.0450849718747700e-01 2.9389262614623202e-01 0 0
4.019000000000e+11 0 0 4.7552825814757660e-01 1.5450849718747431e-01 4.7552825814757660e-01 1.5450849718747431e-01 0 0
4.020000000000e+11 0 0 5.0000000000000000e-01 -1.0683500545275673e-13 5.0000000000000000e-01 -1.0683500545275673e-13 0 0
4.021000000000e+11 0 0 4.7552825814758082e-01 -1.5450849718746126e-01 4.7552825814758082e-01 -1.5450849718746126e-01 0 0
4.022000000000e+11 0 0 4.0450849718748505e-01 -2.9389262614622097e-01 4.0450849718748505e-01 -2.9389262614622097e-01 0 0
4.023000000000e+11 0 0 2.9389262614616524e-01 -4.0450849718752552e-01 2.9389262614616524e-01 -4.0450849718752552e-01 0 0
4.024000000000e+11 0 0 1.5450849718750390e-01 -4.7552825814756700e-01 1.5450849718750390e-01 -4.7552825814756700e-01 0 0
4.025000000000e+11 0 0 -7.5718144593273671e-14 -5.0000000000000000e-01 -7.5718144593273671e-14 -5.0000000000000000e-01 0 0
4.026000000000e+11 0 0 -1.5450849718753981e-01 -4.7552825814755528e-01 -1.5450849718753981e-01 -4.7552825814755528e-01 0 0
4.027000000000e+11 0 0 -2.9389262614619577e-01 -4.0450849718750337e-01 -2.9389262614619577e-01 -4.0450849718750337e-01 0 0
4.028000000000e+11 0 0 -4.0450849718750725e-01 -2.9389262614619038e-01 -4.0450849718750725e-01 -2.9389262614619038e-01 0 0
4.029000000000e+11 0 0 -4.7552825814759248e-01 -1.5450849718742538e-01 -4.7552825814759248e-01 -1.5450849718742538e-01 0 0
4.030000000000e+11 0 0 -5.0000000000000000e-01 -6.9085553987825432e-14 -5.0000000000000000e-01 -6.9085553987825432e-14 0 0
4.031000000000e+11 0 0 -4.7552825814756494e-01 1.5450849718751022e-01 -4.7552825814756494e-01 1.5450849718751022e-01 0 0
4.032000000000e+11 0 0 -4.0450849718745480e-01 2.9389262614626255e-01 -4.0450849718745480e-01 2.9389262614626255e-01 0 0
4.033000000000e+11 0 0 -2.9389262614621559e-01 4.0450849718748894e-01 -2.9389262614621559e-01 4.0450849718748894e-01 0 0
4.034000000000e+11 0 0 -1.5450849718745496e-01 4.7552825814758287e-01 -1.5450849718745496e-01 4.7552825814758287e-01 0 0
4.035000000000e+11 0 0 1.3484422874307534e-14 5.0000000000000000e-01 1.3484422874307534e-14 5.0000000000000000e-01 0 0
4.036000000000e+11 0 0 1.5450849718748061e-01 4.7552825814757455e-01 1.5450849718748061e-01 4.7552825814757455e-01 0 0
4.037000000000e+11 0 0 2.9389262614623740e-01 4.0450849718747312e-01 2.9389262614623740e-01 4.0450849718747312e-01 0 0
4.038000000000e+11 0 0 4.0450849718747067e-01 2.9389262614624073e-01 4.0450849718747067e-01 2.9389262614624073e-01 0 0
4.039000000000e+11 0 0 4.7552825814757327e-01 1.5450849718748455e-01 4.7552825814757327e-01 1.5450849718748455e-01 0 0
4.040000000000e+11 0 0 5.0000000000000000e-01 1.7632437985175533e-14 5.0000000000000000e-01 1.7632437985175533e-14 0 0
4.041000000000e+11 0 0 4.7552825814754901e-01 -1.5450849718755916e-01 4.7552825814754901e-01 -1.5450849718755916e-01 0 0
4.042000000000e+11 0 0 4.0450849718749138e-01 -2.9389262614621225e-01 4.0450849718749138e-01 -2.9389262614621225e-01 0 0
4.043000000000e+11 0 0 2.9389262614626593e-01 -4.0450849718745235e-01 2.9389262614626593e-01 -4.0450849718745235e-01 0 0
4.044000000000e+11 0 0 1.5450849718740603e-01 -4.7552825814759880e-01 1.5450849718740603e-01 -4.7552825814759880e-01 0 0
4.045000000000e+11 0 0 4.8749298844658597e-14 -5.0000000000000000e-01 4.8749298844658597e-14 -5.0000000000000000e-01 0 0
4.046000000000e+11 0 0 -1.5450849718742143e-01 -4.7552825814759375e-01 -1.5450849718742143e-01 -4.7552825814759375e-01 0 0
4.047000000000e+11 0 0 -2.9389262614627903e-01 -4.0450849718744286e-01 -2.9389262614627903e-01 -4.0450849718744286e-01 0 0
4.048000000000e+11 0 0 -4.0450849718743409e-01 -2.9389262614629108e-01 -4.0450849718743409e-01 -2.9389262614629108e-01 0 0
4.049000000000e+11 0 0 -4.7552825814758914e-01 -1.5450849718743562e-01 -4.7552825814758914e-01 -1.5450849718743562e-01 0 0
4.050000000000e+11 0 0 -5.0000000000000000e-01 3.3820678017474366e-14 -5.0000000000000000e-01 3.3820678017474366e-14 0 0
4.051000000000e+11 0 0 -4.7552825814760341e-01 1.5450849718739185e-01 -4.7552825814760341e-01 1.5450849718739185e-01 0 0
4.052000000000e+11 0 0 -4.0450849718746112e-01 2.9389262614625383e-01 -4.0450849718746112e-01 2.9389262614625383e-01 0 0
4.053000000000e+11 0 0 -2.9389262614622430e-01 4.0450849718748261e-01 -2.9389262614622430e-01 4.0450849718748261e-01 0 0
4.054000000000e+11 0 0 -1.5450849718735710e-01 4.7552825814761468e-01 -1.5450849718735710e-01 4.7552825814761468e-01 0 0
4.055000000000e+11 0 0 2.7038171579912966e-15 5.0000000000000000e-01 2.7038171579912966e-15 5.0000000000000000e-01 0 0
4.056000000000e+11 0 0 1.5450849718747037e-01 4.7552825814757788e-01 1.5450849718747037e-01 4.7552825814757788e-01 0 0
4.057000000000e+11 0 0 2.9389262614632067e-01 4.0450849718741261e-01 2.9389262614632067e-01 4.0450849718741261e-01 0 0
4.058000000000e+11 0 0 4.0450849718746434e-01 2.9389262614624950e-01 4.0450849718746434e-01 2.9389262614624950e-01 0 0
4.059000000000e+11 0 0 4.7552825814756994e-01 1.5450849718749482e-01 4.7552825814756994e-01 1.5450849718749482e-01 0 0
4.060000000000e+11 0 0 5.0000000000000000e-01 -8.5273794020124256e-14 5.0000000000000000e-01 -8.5273794020124256e-14 0 0
4.061000000000e+11 0 0 4.7552825814758748e-01 -1.5450849718744078e-01 4.7552825814758748e-01 -1.5450849718744078e-01 0 0
4.062000000000e+11 0 0 4.0450849718743093e-01 -2.9389262614629547e-01 4.0450849718743093e-01 -2.9389262614629547e-01 0 0
4.063000000000e+11 0 0 2.9389262614618267e-01 -4.0450849718751286e-01 2.9389262614618267e-01 -4.0450849718751286e-01 0 0
4.064000000000e+11 0 0 1.5450849718752441e-01 -4.7552825814756033e-01 1.5450849718752441e-01 -4.7552825814756033e-01 0 0
4.065000000000e+11 0 0 -5.4156933160641195e-14 -5.0000000000000000e-01 -5.4156933160641195e-14 -5.0000000000000000e-01 0 0
4.066000000000e+11 0 0 -1.5450849718751930e-01 -4.7552825814756200e-01 -1.5450849718751930e-01 -4.7552825814756200e-01 0 0
4.067000000000e+11 0 0 -2.9389262614617834e-01 -4.0450849718751603e-01 -2.9389262614617834e-01 -4.0450849718751603e-01 0 0
4.068000000000e+11 0 0 -4.0450849718749460e-01 -2.9389262614620787e-01 -4.0450849718749460e-01 -2.9389262614620787e-01 0 0
4.069000000000e+11 0 0 -4.7552825814758581e-01 -1.5450849718744589e-01 -4.7552825814758581e-01 -1.5450849718744589e-01 0 0
4.070000000000e+11 0 0 -5.0000000000000000e-01 2.3040072301158125e-14 -5.0000000000000000e-01 2.3040072301158125e-14 0 0
4.071000000000e+11 0 0 -4.7552825814757160e-01 1.5450849718748971e-01 -4.7552825814757160e-01 1.5450849718748971e-01 0 0
4.072000000000e+11 0 0 -4.0450849718746751e-01 2.9389262614624512e-01 -4.0450849718746751e-01 2.9389262614624512e-01 0 0
4.073000000000e+11 0 0 -2.9389262614623302e-01 4.0450849718747628e-01 -2.9389262614623302e-01 4.0450849718747628e-01 0 0
4.074000000000e+11 0 0 -1.5450849718747547e-01 4.7552825814757621e-01 -1.5450849718747547e-01 4.7552825814757621e-01 0 0
4.075000000000e+11 0 0 -8.0767885583249417e-15 5.0000000000000000e-01 -8.0767885583249417e-15 5.0000000000000000e-01 0 0
4.076000000000e+11 0 0 1.5450849718746013e-01 4.7552825814758121e-01 1.5450849718746013e-01 4.7552825814758121e-01 0 0
4.077000000000e+11 0 0 2.9389262614621997e-01 4.0450849718748577e-01 2.9389262614621997e-01 4.0450849718748577e-01 0 0
4.078000000000e+11 0 0 4.0450849718752480e-01 2.9389262614616624e-01 4.0450849718752480e-01 2.9389262614616624e-01 0 0
4.079000000000e+11 0 0 4.7552825814756661e-01 1.5450849718750506e-01 4.7552825814756661e-01 1.5450849718750506e-01 0 0
4.080000000000e+11 0 0 5.0000000000000000e-01 3.9193649417808005e-14 5.0000000000000000e-01 3.9193649417808005e-14 0 0
4.081000000000e+11 0 0 4.7552825814755567e-01 -1.5450849718753865e-01 4.7552825814755567e-01 -1.5450849718753865e-01 0 0
4.082000000000e+11 0 0 4.0450849718750409e-01 -2.9389262614619477e-01 4.0450849718750409e-01 -2.9389262614619477e-01 0 0
4.083000000000e+11 0 0 2.9389262614619138e-01 -4.0450849718750653e-01 2.9389262614619138e-01 -4.0450849718750653e-01 0 0
4.084000000000e+11 0 0 1.5450849718742654e-01 -4.7552825814759209e-01 1.5450849718742654e-01 -4.7552825814759209e-01 0 0
4.085000000000e+11 0 0 7.0310510277291072e-14 -5.0000000000000000e-01 7.0310510277291072e-14 -5.0000000000000000e-01 0 0
4.086000000000e+11 0 0 -1.5450849718750906e-01 -4.7552825814756533e-01 -1.5450849718750906e-01 -4.7552825814756533e-01 0 0
4.087000000000e+11 0 0 -2.9389262614626160e-01 -4.0450849718745552e-01 -2.9389262614626160e-01 -4.0450849718745552e-01 0 0
4.088000000000e+11 0 0 -4.0450849718742143e-01 -2.9389262614630857e-01 -4.0450849718742143e-01 -2.9389262614630857e-01 0 0
4.089000000000e+11 0 0 -4.7552825814758248e-01 -1.5450849718745613e-01 -4.7552825814758248e-01 -1.5450849718745613e-01 0 0
4.090000000000e+11 0 0 -5.0000000000000000e-01 1.2259466584841887e-14 -5.0000000000000000e-01 1.2259466584841887e-14 0 0
4.091000000000e+11 0 0 -4.7552825814753980e-01 1.5450849718758758e-01 -4.7552825814753980e-01 1.5450849718758758e-01 0 0
4.092000000000e+11 0 0 -4.0450849718747384e-01 2.9389262614623640e-01 -4.0450849718747384e-01 2.9389262614623640e-01 0 0
4.093000000000e+11 0 0 -2.9389262614624173e-01 4.0450849718746995e-01 -2.9389262614624173e-01 4.0450849718746995e-01 0 0
4.094000000000e+11 0 0 -1.5450849718737761e-01 4.7552825814760802e-01 -1.5450849718737761e-01 4.7552825814760802e-01 0 0
4.095000000000e+11 0 0 -1.8857394274641180e-14 5.0000000000000000e-01 -1.8857394274641180e-14 5.0000000000000000e-01 0 0
4.096000000000e+11 0 0 1.5450849718744986e-01 4.7552825814758454e-01 1.5450849718744986e-01 4.7552825814758454e-01 0 0
4.097000000000e+11 0 0 2.9389262614630318e-01 4.0450849718742526e-01 2.9389262614630318e-01 4.0450849718742526e-01 0 0
4.098000000000e+11 0 0 4.0450849718745163e-01 2.9389262614626693e-01 4.0450849718745163e-01 2.9389262614626693e-01 0 0
4.099000000000e+11 0 0 4.7552825814759841e-01 1.5450849718740720e-01 4.7552825814759841e-01 1.5450849718740720e-01 0 0
4.100000000000e+11 0 0 5.0000000000000000e-01 -6.3712582587491780e-14 5.0000000000000000e-01 -6.3712582587491780e-14 0 0
4.101000000000e+11 0 0 4.7552825814759414e-01 -1.5450849718742027e-01 4.7552825814759414e-01 -1.5450849718742027e-01 0 0
4.102000000000e+11 0 0 4.0450849718744358e-01 -2.9389262614627804e-01 4.0450849718744358e-01 -2.9389262614627804e-01 0 0
4.103000000000e+11 0 0 2.9389262614620015e-01 -4.0450849718750020e-01 2.9389262614620015e-01 -4.0450849718750020e-01 0 0
4.104000000000e+11 0 0 1.5450849718754492e-01 -4.7552825814755367e-01 1.5450849718754492e-01 -4.7552825814755367e-01 0 0
4.105000000000e+11 0 0 -3.2595721728008713e-14 -5.0000000000000000e-01 -3.2595721728008713e-14 -5.0000000000000000e-01 0 0
4.106000000000e+11 0 0 -1.5450849718749879e-01 -4.7552825814756866e-01 -1.5450849718749879e-01 -4.7552825814756866e-01 0 0
4.107000000000e+11 0 0 -2.9389262614625289e-01 -4.0450849718746185e-01 -2.9389262614625289e-01 -4.0450849718746185e-01 0 0
4.108000000000e+11 0 0 -4.0450849718748189e-01 -2.9389262614622530e-01 -4.0450849718748189e-01 -2.9389262614622530e-01 0 0
4.109000000000e+11 0 0 -4.7552825814757915e-01 -1.5450849718746640e-01 -4.7552825814757915e-01 -1.5450849718746640e-01 0 0
4.110000000000e+11 0 0 -5.0000000000000000e-01 1.4788608685256491e-15 -5.0000000000000000e-01 1.4788608685256491e-15 0 0
4.111000000000e+11 0 0 -4.7552825814757826e-01 1.5450849718746920e-01 -4.7552825814757826e-01 1.5450849718746920e-01 0 0
4.112000000000e+11 0 0 -4.0450849718741333e-01 2.9389262614631967e-01 -4.0450849718741333e-01 2.9389262614631967e-01 0 0
4.113000000000e+11 0 0 -2.9389262614625045e-01 4.0450849718746362e-01 -2.9389262614625045e-01 4.0450849718746362e-01 0 0
4.114000000000e+11 0 0 -1.5450849718749599e-01 4.7552825814756955e-01 -1.5450849718749599e-01 4.7552825814756955e-01 0 0
4.115000000000e+11 0 0 8.4048837730658615e-14 5.0000000000000000e-01 8.4048837730658615e-14 5.0000000000000000e-01 0 0
4.116000000000e+11 0 0 1.5450849718743961e-01 4.7552825814758787e-01 1.5450849718743961e-01 4.7552825814758787e-01 0 0
4.117000000000e+11 0 0 2.9389262614620254e-01 4.0450849718749843e-01 2.9389262614620254e-01 4.0450849718749843e-01 0 0
4.118000000000e+11 0 0 4.0450849718751214e-01 2.9389262614618367e-01 4.0450849718751214e-01 2.9389262614618367e-01 0 0
4.119000000000e+11 0 0 4.7552825814755995e-01 1.5450849718752557e-01 4.7552825814755995e-01 1.5450849718752557e-01 0 0
4.120000000000e+11 0 0 5.0000000000000000e-01 -5.2931976871175542e-14 5.0000000000000000e-01 -5.2931976871175542e-14 0 0
4.121000000000e+11 0 0 4.7552825814756233e-01 -1.5450849718751813e-01 4.7552825814756233e-01 -1.5450849718751813e-01 0 0
4.122000000000e+11 0 0 4.0450849718751675e-01 -2.9389262614617734e-01 4.0450849718751675e-01 -2.9389262614617734e-01 0 0
4.123000000000e+11 0 0 2.9389262614620887e-01 -4.0450849718749382e-01 2.9389262614620887e-01 -4.0450849718749382e-01 0 0
4.124000000000e+11 0 0 1.5450849718744705e-01 -4.7552825814758543e-01 1.5450849718744705e-01 -4.7552825814758543e-01 0 0
4.125000000000e+11 0 0 9.1871721709923548e-14 -5.0000000000000000e-01 9.1871721709923548e-14 -5.0000000000000000e-01 0 0
4.126000000000e+11 0 0 -1.5450849718748855e-01 -4.7552825814757199e-01 -1.5450849718748855e-01 -4.7552825814757199e-01 0 0
4.127000000000e+11 0 0 -2.9389262614624412e-01 -4.0450849718746823e-01 -2.9389262614624412e-01 -4.0450849718746823e-01 0 0
4.128000000000e+11 0 0 -4.0450849718754239e-01 -2.9389262614614203e-01 -4.0450849718754239e-01 -2.9389262614614203e-01 0 0
4.129000000000e+11 0 0 -4.7552825814757582e-01 -1.5450849718747664e-01 -4.7552825814757582e-01 -1.5450849718747664e-01 0 0
4.130000000000e+11 0 0 -5.0000000000000000e-01 -9.3017448477905886e-15 -5.0000000000000000e-01 -9.3017448477905886e-15 0 0
4.131000000000e+11 0 0 -4.7552825814754646e-01 1.5450849718756707e-01 -4.7552825814754646e-01 1.5450849718756707e-01 0 0
4.132000000000e+11 0 0 -4.0450849718748649e-01 2.9389262614621897e-01 -4.0450849718748649e-01 2.9389262614621897e-01 0 0
4.133000000000e+11 0 0 -2.9389262614625922e-01 4.0450849718745729e-01 -2.9389262614625922e-01 4.0450849718745729e-01 0 0
4.134000000000e+11 0 0 -1.5450849718739812e-01 4.7552825814760136e-01 -1.5450849718739812e-01 4.7552825814760136e-01 0 0
4.135000000000e+11 0 0 -4.0418605707273659e-14 5.0000000000000000e-01 -4.0418605707273659e-14 5.0000000000000000e-01 0 0
4.136000000000e+11 0 0 1.5450849718753748e-01 4.7552825814755606e-01 1.5450849718753748e-01 4.7552825814755606e-01 0 0
4.137000000000e+11 0 0 2.9389262614628575e-01 4.0450849718743798e-01 2.9389262614628575e-01 4.0450849718743798e-01 0 0
4.138000000000e+11 0 0 4.0450849718743898e-01 2.9389262614628436e-01 4.0450849718743898e-01 2.9389262614628436e-01 0 0
4.139000000000e+11 0 0 4.7552825814759175e-01 1.5450849718742771e-01 4.7552825814759175e-01 1.5450849718742771e-01 0 0
4.140000000000e+11 0 0 5.0000000000000000e-01 -4.2151371154859304e-14 5.0000000000000000e-01 -4.2151371154859304e-14 0 0
4.141000000000e+11 0 0 4.7552825814756566e-01 -1.5450849718750789e-01 4.7552825814756566e-01 -1.5450849718750789e-01 0 0
4.142000000000e+11 0 0 4.0450849718745624e-01 -2.9389262614626060e-01 4.0450849718745624e-01 -2.9389262614626060e-01 0 0
4.143000000000e+11 0 0 2.9389262614621758e-01 -4.0450849718748749e-01 2.9389262614621758e-01 -4.0450849718748749e-01 0 0
4.144000000000e+11 0 0 1.5450849718745729e-01 -4.7552825814758209e-01 1.5450849718745729e-01 -4.7552825814758209e-01 0 0
4.145000000000e+11 0 0 -1.1034510295376240e-14 -5.0000000000000000e-01 -1.1034510295376240e-14 -5.0000000000000000e-01 0 0
4.146000000000e+11 0 0 -1.5450849718747828e-01 -4.7552825814757532e-01 -1.5450849718747828e-01 -4.7552825814757532e-01 0 0
4.147000000000e+11 0 0 -2.9389262614623540e-01 -4.0450849718747456e-01 -2.9389262614623540e-01 -4.0450849718747456e-01 0 0
4.148000000000e+11 0 0 -4.0450849718746923e-01 -2.9389262614624273e-01 -4.0450849718746923e-01 -2.9389262614624273e-01 0 0
4.149000000000e+11 0 0 -4.7552825814760763e-01 -1.5450849718737877e-01 -4.7552825814760763e-01 -1.5450849718737877e-01 0 0
4.150000000000e+11 0 0 -5.0000000000000000e-01 -2.0082350564106827e-14 -5.0000000000000000e-01 -2.0082350564106827e-14 0 0
4.151000000000e+11 0 0 -4.7552825814758493e-01 1.5450849718744869e-01 -4.7552825814758493e-01 1.5450849718744869e-01 0 0
4.152000000000e+11 0 0 -4.0450849718742599e-01 2.9389262614630224e-01 -4.0450849718742599e-01 2.9389262614630224e-01 0 0
4.153000000000e+11 0 0 -2.9389262614626793e-01 4.0450849718745091e-01 -2.9389262614626793e-01 4.0450849718745091e-01 0 0
4.154000000000e+11 0 0 -1.5450849718751650e-01 4.7552825814756289e-01 -1.5450849718751650e-01 4.7552825814756289e-01 0 0
4.155000000000e+11 0 0 6.2487626298026139e-14 5.0000000000000000e-01 6.2487626298026139e-14 5.0000000000000000e-01 0 0
4.156000000000e+11 0 0 1.5450849718741910e-01 4.7552825814759453e-01 1.5450849718741910e-01 4.7552825814759453e-01 0 0
4.157000000000e+11 0 0 2.9389262614627704e-01 4.0450849718744430e-01 2.9389262614627704e-01 4.0450849718744430e-01 0 0
4.158000000000e+11 0 0 4.0450849718749948e-01 2.9389262614620110e-01 4.0450849718749948e-01 2.9389262614620110e-01 0 0
4.159000000000e+11 0 0 4.7552825814755328e-01 1.5450849718754608e-01 4.7552825814755328e-01 1.5450849718754608e-01 0 0
4.160000000000e+11 0 0 5.0000000000000000e-01 -3.1370765438543066e-14 5.0000000000000000e-01 -3.1370765438543066e-14 0 0
4.161000000000e+11 0 0 4.7552825814756899e-01 -1.5450849718749762e-01 4.7552825814756899e-01 -1.5450849718749762e-01 0 0
4.162000000000e+11 0 0 4.0450849718752940e-01 -2.9389262614615991e-01 4.0450849718752940e-01 -2.9389262614615991e-01 0 0
4.163000000000e+11 0 0 2.9389262614622630e-01 -4.0450849718748116e-01 2.9389262614622630e-01 -4.0450849718748116e-01 0 0
4.164000000000e+11 0 0 1.5450849718746756e-01 -4.7552825814757876e-01 1.5450849718746756e-01 -4.7552825814757876e-01 0 0
4.165000000000e+11 0 0 -1.1394074230067604e-13 -5.0000000000000000e-01 -1.1394074230067604e-13 -5.0000000000000000e-01 0 0
4.166000000000e+11 0 0 -1.5450849718746804e-01 -4.7552825814757865e-01 -1.5450849718746804e-01 -4.7552825814757865e-01 0 0
4.167000000000e+11 0 0 -2.9389262614622669e-01 -4.0450849718748089e-01 -2.9389262614622669e-01 -4.0450849718748089e-01 0 0
4.168000000000e+11 0 0 -4.0450849718752968e-01 -2.9389262614615946e-01 -4.0450849718752968e-01 -2.9389262614615946e-01 0 0
4.169000000000e+11 0 0 -4.7552825814756916e-01 -1.5450849718749715e-01 -4.7552825814756916e-01 -1.5450849718749715e-01 0 0
4.170000000000e+11 0 0 -5.0000000000000000e-01 8.2823881441192962e-14 -5.0000000000000000e-01 8.2823881441192962e-14 0 0
4.171000000000e+11 0 0 -4.7552825814755312e-01 1.5450849718754656e-01 -4.7552825814755312e-01 1.5450849718754656e-01 0 0
4.172000000000e+11 0 0 -4.0450849718749915e-01 2.9389262614620154e-01 -4.0450849718749915e-01 2.9389262614620154e-01 0 0
4.173000000000e+11 0 0 -2.9389262614618467e-01 4.0450849718751142e-01 -2.9389262614618467e-01 4.0450849718751142e-01 0 0
4.174000000000e+11 0 0 -1.5450849718741860e-01 4.7552825814759470e-01 -1.5450849718741860e-01 4.7552825814759470e-01 0 0
4.175000000000e+11 0 0 -6.1979817139906128e-14 5.0000000000000000e-01 -6.1979817139906128e-14 5.0000000000000000e-01 0 0
4.176000000000e+11 0 0 1.5450849718751697e-01 4.7552825814756272e-01 1.5450849718751697e-01 4.7552825814756272e-01 0 0
4.177000000000e+11 0 0 2.9389262614626832e-01 4.0450849718745063e-01 2.9389262614626832e-01 4.0450849718745063e-01 0 0
4.178000000000e+11 0 0 4.0450849718749315e-01 2.9389262614620981e-01 4.0450849718749315e-01 2.9389262614620981e-01 0 0
4.179000000000e+11 0 0 4.7552825814758509e-01 1.5450849718744822e-01 4.7552825814758509e-01 1.5450849718744822e-01 0 0
4.180000000000e+11 0 0 5.0000000000000000e-01 -2.0590159722226831e-14 5.0000000000000000e-01 -2.0590159722226831e-14 0 0
4.181000000000e+11 0 0 4.7552825814757232e-01 -1.5450849718748738e-01 4.7552825814757232e-01 -1.5450849718748738e-01 0 0
4.182000000000e+11 0 0 4.0450849718746890e-01 -2.9389262614624317e-01 4.0450849718746890e-01 -2.9389262614624317e-01 0 0
4.183000000000e+11 0 0 2.9389262614623501e-01 -4.0450849718747484e-01 2.9389262614623501e-01 -4.0450849718747484e-01 0 0
4.184000000000e+11 0 0 1.5450849718747781e-01 -4.7552825814757543e-01 1.5450849718747781e-01 -4.7552825814757543e-01 0 0
4.185000000000e+11 0 0 1.0526701137256236e-14 -5.0000000000000000e-01 1.0526701137256236e-14 -5.0000000000000000e-01 0 0
4.186000000000e+11 0 0 -1.5450849718756590e-01 -4.7552825814754685e-01 -1.5450849718756590e-01 -4.7552825814754685e-01 0 0
4.187000000000e+11 0 0 -2.9389262614621797e-01 -4.0450849718748721e-01 -2.9389262614621797e-01 -4.0450849718748721e-01 0 0
4.188000000000e+11 0 0 -4.0450849718745657e-01 -2.9389262614626016e-01 -4.0450849718745657e-01 -2.9389262614626016e-01 0 0
4.189000000000e+11 0 0 -4.7552825814760097e-01 -1.5450849718739929e-01 -4.7552825814760097e-01 -1.5450849718739929e-01 0 0
4.190000000000e+11 0 0 -5.0000000000000000e-01 -4.1643561996739306e-14 -5.0000000000000000e-01 -4.1643561996739306e-14 0 0
4.191000000000e+11 0 0 -4.7552825814759159e-01 1.5450849718742818e-01 -4.7552825814759159e-01 1.5450849718742818e-01 0 0
4.192000000000e+11 0 0 -4.0450849718743870e-01 2.9389262614628475e-01 -4.0450849718743870e-01 2.9389262614628475e-01 0 0
4.193000000000e+11 0 0 -2.9389262614628536e-01 4.0450849718743825e-01 -2.9389262614628536e-01 4.0450849718743825e-01 0 0
4.194000000000e+11 0 0 -1.5450849718742887e-01 4.7552825814759137e-01 -1.5450849718742887e-01 4.7552825814759137e-01 0 0
4.195000000000e+11 0 0 4.0926414865393657e-14 5.0000000000000000e-01 4.0926414865393657e-14 5.0000000000000000e-01 0 0
4.196000000000e+11 0 0 1.5450849718739859e-01 4.7552825814760119e-01 1.5450849718739859e-01 4.7552825814760119e-01 0 0
4.197000000000e+11 0 0 2.9389262614625961e-01 4.0450849718745696e-01 2.9389262614625961e-01 4.0450849718745696e-01 0 0
4.198000000000e+11 0 0 4.0450849718748683e-01 2.9389262614621858e-01 4.0450849718748683e-01 2.9389262614621858e-01 0 0
4.199000000000e+11 0 0 4.7552825814761684e-01 1.5450849718735035e-01 4.7552825814761684e-01 1.5450849718735035e-01 0 0
4.200000000000e+11 0 0 5.0000000000000000e-01 -9.8095540059105919e-15 5.0000000000000000e-01 -9.8095540059105919e-15 0 0
4.201000000000e+11 0 0 4.7552825814757566e-01 -1.5450849718747711e-01 4.7552825814757566e-01 -1.5450849718747711e-01 0 0
4.202000000000e+11 0 0 4.0450849718740844e-01 -2.9389262614632639e-01 4.0450849718740844e-01 -2.9389262614632639e-01 0 0
4.203000000000e+11 0 0 2.9389262614624373e-01 -4.0450849718746851e-01 2.9389262614624373e-01 -4.0450849718746851e-01 0 0
4.204000000000e+11 0 0 1.5450849718748805e-01 -4.7552825814757210e-01 1.5450849718748805e-01 -4.7552825814757210e-01 0 0
4.205000000000e+11 0 0 -9.2379530868043559e-14 -5.0000000000000000e-01 -9.2379530868043559e-14 -5.0000000000000000e-01 0 0
4.206000000000e+11 0 0 -1.5450849718744752e-01 -4.7552825814758531e-01 -1.5450849718744752e-01 -4.7552825814758531e-01 0 0
4.207000000000e+11 0 0 -2.9389262614630124e-01 -4.0450849718742671e-01 -2.9389262614630124e-01 -4.0450849718742671e-01 0 0
4.208000000000e+11 0 0 -4.0450849718751702e-01 -2.9389262614617695e-01 -4.0450849718751702e-01 -2.9389262614617695e-01 0 0
4.209000000000e+11 0 0 -4.7552825814756250e-01 -1.5450849718751766e-01 -4.7552825814756250e-01 -1.5450849718751766e-01 0 0
4.210000000000e+11 0 0 -5.0000000000000000e-01 6.1262670008560486e-14 -5.0000000000000000e-01 6.1262670008560486e-14 0 0
4.211000000000e+11 0 0 -4.7552825814755978e-01 1.5450849718752604e-01 -4.7552825814755978e-01 1.5450849718752604e-01 0 0
4.212000000000e+11 0 0 -4.0450849718751186e-01 2.9389262614618406e-01 -4.0450849718751186e-01 2.9389262614618406e-01 0 0
4.213000000000e+11 0 0 -2.9389262614620210e-01 4.0450849718749876e-01 -2.9389262614620210e-01 4.0450849718749876e-01 0 0
4.214000000000e+11 0 0 -1.5450849718743911e-01 4.7552825814758803e-01 -1.5450849718743911e-01 4.7552825814758803e-01 0 0
4.215000000000e+11 0 0 3.0145809149077419e-14 5.0000000000000000e-01 3.0145809149077419e-14 5.0000000000000000e-01 0 0
4.216000000000e+11 0 0 1.5450849718749646e-01 4.7552825814756938e-01 1.5450849718749646e-01 4.7552825814756938e-01 0 0
4.217000000000e+11 0 0 2.9389262614625089e-01 4.0450849718746329e-01 2.9389262614625089e-01 4.0450849718746329e-01 0 0
4.218000000000e+11 0 0 4.0450849718748044e-01 2.9389262614622730e-01 4.0450849718748044e-01 2.9389262614622730e-01 0 0
4.219000000000e+11 0 0 4.7552825814757843e-01 1.5450849718746873e-01 4.7552825814757843e-01 1.5450849718746873e-01 0 0
4.220000000000e+11 0 0 5.0000000000000000e-01 9.7105171040564545e-16 5.0000000000000000e-01 9.7105171040564545e-16 0 0
4.221000000000e+11 0 0 4.7552825814757899e-01 -1.5450849718746687e-01 4.7552825814757899e-01 -1.5450849718746687e-01 0 0
4.222000000000e+11 0 0 4.0450849718748161e-01 -2.9389262614622569e-01 4.0450849718748161e-01 -2.9389262614622569e-01 0 0
4.223000000000e+11 0 0 2.9389262614616046e-01 -4.0450849718752901e-01 2.9389262614616046e-01 -4.0450849718752901e-01 0 0
4.224000000000e+11 0 0 1.5450849718749832e-01 -4.7552825814756877e-01 1.5450849718749832e-01 -4.7552825814756877e-01 0 0
4.225000000000e+11 0 0 3.2087912569888715e-14 -5.0000000000000000e-01 3.2087912569888715e-14 -5.0000000000000000e-01 0 0
4.226000000000e+11 0 0 -1.5450849718754539e-01 -4.7552825814755351e-01 -1.5450849718754539e-01 -4.7552825814755351e-01 0 0
4.227000000000e+11 0 0 -2.9389262614620054e-01 -4.0450849718749987e-01 -2.9389262614620054e-01 -4.0450849718749987e-01 0 0
4.228000000000e+11 0 0 -4.0450849718751070e-01 -2.9389262614618566e-01 -4.0450849718751070e-01 -2.9389262614618566e-01 0 0
4.229000000000e+11 0 0 -4.7552825814759431e-01 -1.5450849718741977e-01 -4.7552825814759431e-01 -1.5450849718741977e-01 0 0
4.230000000000e+11 0 0 -5.0000000000000000e-01 -6.3204773429371781e-14 -5.0000000000000000e-01 -6.3204773429371781e-14 0 0
4.231000000000e+11 0 0 -4.7552825814756311e-01 1.5450849718751580e-01 -4.7552825814756311e-01 1.5450849718751580e-01 0 0
4.232000000000e+11 0 0 -4.0450849718745135e-01 2.9389262614626732e-01 -4.0450849718745135e-01 2.9389262614626732e-01 0 0
4.233000000000e+11 0 0 -2.9389262614630279e-01 4.0450849718742560e-01 -2.9389262614630279e-01 4.0450849718742560e-01 0 0
4.234000000000e+11 0 0 -1.5450849718744938e-01 4.7552825814758470e-01 -1.5450849718744938e-01 4.7552825814758470e-01 0 0
4.235000000000e+11 0 0 1.9365203432761185e-14 5.0000000000000000e-01 1.9365203432761185e-14 5.0000000000000000e-01 0 0
4.236000000000e+11 0 0 1.5450849718759432e-01 4.7552825814753757e-01 1.5450849718759432e-01 4.7552825814753757e-01 0 0
4.237000000000e+11 0 0 2.9389262614624218e-01 4.0450849718746967e-01 2.9389262614624218e-01 4.0450849718746967e-01 0 0
4.238000000000e+11 0 0 4.0450849718747411e-01 2.9389262614623601e-01 4.0450849718747411e-01 2.9389262614623601e-01 0 0
4.239000000000e+11 0 0 4.7552825814761018e-01 1.5450849718737084e-01 4.7552825814761018e-01 1.5450849718737084e-01 0 0
4.240000000000e+11 0 0 5.0000000000000000e-01 1.1751657426721884e-14 5.0000000000000000e-01 1.1751657426721884e-14 0 0
4.241000000000e+11 0 0 4.7552825814758232e-01 -1.5450849718745663e-01 4.7552825814758232e-01 -1.5450849718745663e-01 0 0
4.242000000000e+11 0 0 4.0450849718742110e-01 -2.9389262614630896e-01 4.0450849718742110e-01 -2.9389262614630896e-01 0 0
4.243000000000e+11 0 0 2.9389262614626116e-01 -4.0450849718745585e-01 2.9389262614626116e-01 -4.0450849718745585e-01 0 0
4.244000000000e+11 0 0 1.5450849718740045e-01 -4.7552825814760058e-01 1.5450849718740045e-01 -4.7552825814760058e-01 0 0
4.245000000000e+11 0 0 -7.0818319435411084e-14 -5.0000000000000000e-01 -7.0818319435411084e-14 -5.0000000000000000e-01 0 0
4.246000000000e+11 0 0 -1.5450849718742701e-01 -4.7552825814759198e-01 -1.5450849718742701e-01 -4.7552825814759198e-01 0 0
4.247000000000e+11 0 0 -2.9389262614628381e-01 -4.0450849718743942e-01 -2.9389262614628381e-01 -4.0450849718743942e-01 0 0
4.248000000000e+11 0 0 -4.0450849718750437e-01 -2.9389262614619438e-01 -4.0450849718750437e-01 -2.9389262614619438e-01 0 0
4.249000000000e+11 0 0 -4.7552825814755584e-01 -1.5450849718753815e-01 -4.7552825814755584e-01 -1.5450849718753815e-01 0 0
4.250000000000e+11 0 0 -5.0000000000000000e-01 3.9701458575928010e-14 -5.0000000000000000e-01 3.9701458575928010e-14 0 0
4.251000000000e+11 0 0 -4.7552825814756644e-01 1.5450849718750556e-01 -4.7552825814756644e-01 1.5450849718750556e-01 0 0
4.252000000000e+11 0 0 -4.0450849718745768e-01 2.9389262614625861e-01 -4.0450849718745768e-01 2.9389262614625861e-01 0 0
4.253000000000e+11 0 0 -2.9389262614621953e-01 4.0450849718748605e-01 -2.9389262614621953e-01 4.0450849718748605e-01 0 0
4.254000000000e+11 0 0 -1.5450849718745963e-01 4.7552825814758137e-01 -1.5450849718745963e-01 4.7552825814758137e-01 0 0
4.255000000000e+11 0 0 8.5845977164449450e-15 5.0000000000000000e-01 8.5845977164449450e-15 5.0000000000000000e-01 0 0
4.256000000000e+11 0 0 1.5450849718747595e-01 4.7552825814757604e-01 1.5450849718747595e-01 4.7552825814757604e-01 0 0
4.257000000000e+11 0 0 2.9389262614632539e-01 4.0450849718740917e-01 2.9389262614632539e-01 4.0450849718740917e-01 0 0
4.258000000000e+11 0 0 4.0450849718746779e-01 2.9389262614624473e-01 4.0450849718746779e-01 2.9389262614624473e-01 0 0
4.259000000000e+11 0 0 4.7552825814757177e-01 1.5450849718748921e-01 4.7552825814757177e-01 1.5450849718748921e-01 0 0
4.260000000000e+11 0 0 5.0000000000000000e-01 -9.1154574578577906e-14 5.0000000000000000e-01 -9.1154574578577906e-14 0 0
4.261000000000e+11 0 0 4.7552825814758565e-01 -1.5450849718744636e-01 4.7552825814758565e-01 -1.5450849718744636e-01 0 0
4.262000000000e+11 0 0 4.0450849718749426e-01 -2.9389262614620826e-01 4.0450849718749426e-01 -2.9389262614620826e-01 0 0
4.263000000000e+11 0 0 2.9389262614617795e-01 -4.0450849718751630e-01 2.9389262614617795e-01 -4.0450849718751630e-01 0 0
4.264000000000e+11 0 0 1.5450849718751883e-01 -4.7552825814756211e-01 1.5450849718751883e-01 -4.7552825814756211e-01 0 0
4.265000000000e+11 0 0 -6.0037713719094846e-14 -5.0000000000000000e-01 -6.0037713719094846e-14 -5.0000000000000000e-01 0 0
4.266000000000e+11 0 0 -1.5450849718752488e-01 -4.7552825814756017e-01 -1.5450849718752488e-01 -4.7552825814756017e-01 0 0
4.267000000000e+11 0 0 -2.9389262614618311e-01 -4.0450849718751258e-01 -2.9389262614618311e-01 -4.0450849718751258e-01 0 0
4.268000000000e+11 0 0 -4.0450849718749804e-01 -2.9389262614620310e-01 -4.0450849718749804e-01 -2.9389262614620310e-01 0 0
4.269000000000e+11 0 0 -4.7552825814758765e-01 -1.5450849718744028e-01 -4.7552825814758765e-01 -1.5450849718744028e-01 0 0
4.270000000000e+11 0 0 -5.0000000000000000e-01 -8.4765984862004257e-14 -5.0000000000000000e-01 -8.4765984862004257e-14 0 0
4.271000000000e+11 0 0 -4.7552825814756977e-01 1.5450849718749529e-01 -4.7552825814756977e-01 1.5450849718749529e-01 0 0
4.272000000000e+11 0 0 -4.0450849718746401e-01 2.9389262614624989e-01 -4.0450849718746401e-01 2.9389262614624989e-01 0 0
4.273000000000e+11 0 0 -2.9389262614622824e-01 4.0450849718747972e-01 -2.9389262614622824e-01 4.0450849718747972e-01 0 0
4.274000000000e+11 0 0 -1.5450849718746990e-01 4.7552825814757804e-01 -1.5450849718746990e-01 4.7552825814757804e-01 0 0
4.275000000000e+11 0 0 -2.1960079998712929e-15 5.0000000000000000e-01 -2.1960079998712929e-15 5.0000000000000000e-01 0 0
4.276000000000e+11 0 0 1.5450849718757384e-01 4.7552825814754424e-01 1.5450849718757384e-01 4.7552825814754424e-01 0 0
4.277000000000e+11 0 0 2.9389262614622469e-01 4.0450849718748233e-01 2.9389262614622469e-01 4.0450849718748233e-01 0 0
4.278000000000e+11 0 0 4.0450849718746146e-01 2.9389262614625344e-01 4.0450849718746146e-01 2.9389262614625344e-01 0 0
4.279000000000e+11 0 0 4.7552825814760352e-01 1.5450849718739135e-01 4.7552825814760352e-01 1.5450849718739135e-01 0 0
4.280000000000e+11 0 0 5.0000000000000000e-01 3.3312868859354361e-14 5.0000000000000000e-01 3.3312868859354361e-14 0 0
4.281000000000e+11 0 0 4.7552825814755389e-01 -1.5450849718754422e-01 4.7552825814755389e-01 -1.5450849718754422e-01 0 0
4.282000000000e+11 0 0 4.0450849718743376e-01 -2.9389262614629152e-01 4.0450849718743376e-01 -2.9389262614629152e-01 0 0
4.283000000000e+11 0 0 2.9389262614627865e-01 -4.0450849718744314e-01 2.9389262614627865e-01 -4.0450849718744314e-01 0 0
4.284000000000e+11 0 0 1.5450849718742093e-01 -4.7552825814759392e-01 1.5450849718742093e-01 -4.7552825814759392e-01 0 0
4.285000000000e+11 0 0 -4.9257108002778601e-14 -5.0000000000000000e-01 -4.9257108002778601e-14 -5.0000000000000000e-01 0 0
4.286000000000e+11 0 0 -1.5450849718751464e-01 -4.7552825814756350e-01 -1.5450849718751464e-01 -4.7552825814756350e-01 0 0
4.287000000000e+11 0 0 -2.9389262614626632e-01 -4.0450849718745208e-01 -2.9389262614626632e-01 -4.0450849718745208e-01 0 0
4.288000000000e+11 0 0 -4.0450849718749171e-01 -2.9389262614621181e-01 -4.0450849718749171e-01 -2.9389262614621181e-01 0 0
4.289000000000e+11 0 0 -4.7552825814758432e-01 -1.5450849718745055e-01 -4.7552825814758432e-01 -1.5450849718745055e-01 0 0
4.290000000000e+11 0 0 -5.0000000000000000e-01 1.8140247143295534e-14 -5.0000000000000000e-01 1.8140247143295534e-14 0 0
4.291000000000e+11 0 0 -4.7552825814757310e-01 1.5450849718748505e-01 -4.7552825814757310e-01 1.5450849718748505e-01 0 0
4.292000000000e+11 0 0 -4.0450849718747039e-01 2.9389262614624118e-01 -4.0450849718747039e-01 2.9389262614624118e-01 0 0
4.293000000000e+11 0 0 -2.9389262614623701e-01 4.0450849718747339e-01 -2.9389262614623701e-01 4.0450849718747339e-01 0 0
4.294000000000e+11 0 0 -1.5450849718737200e-01 4.7552825814760985e-01 -1.5450849718737200e-01 4.7552825814760985e-01 0 0
4.295000000000e+11 0 0 -1.2976613716187531e-14 5.0000000000000000e-01 -1.2976613716187531e-14 5.0000000000000000e-01 0 0
4.296000000000e+11 0 0 1.5450849718745546e-01 4.7552825814758271e-01 1.5450849718745546e-01 4.7552825814758271e-01 0 0
4.297000000000e+11 0 0 2.9389262614630796e-01 4.0450849718742182e-01 2.9389262614630796e-01 4.0450849718742182e-01 0 0
4.298000000000e+11 0 0 4.0450849718745513e-01 2.9389262614626216e-01 4.0450849718745513e-01 2.9389262614626216e-01 0 0
4.299000000000e+11 0 0 4.7552825814756511e-01 1.5450849718750972e-01 4.7552825814756511e-01 1.5450849718750972e-01 0 0
4.300000000000e+11 0 0 5.0000000000000000e-01 -6.9593363145945430e-14 5.0000000000000000e-01 -6.9593363145945430e-14 0 0
4.301000000000e+11 0 0 4.7552825814759231e-01 -1.5450849718742585e-01 4.7552825814759231e-01 -1.5450849718742585e-01 0 0
4.302000000000e+11 0 0 4.0450849718744014e-01 -2.9389262614628281e-01 4.0450849718744014e-01 -2.9389262614628281e-01 0 0
4.303000000000e+11 0 0 2.9389262614619538e-01 -4.0450849718750365e-01 2.9389262614619538e-01 -4.0450849718750365e-01 0 0
4.304000000000e+11 0 0 1.5450849718753931e-01 -4.7552825814755545e-01 1.5450849718753931e-01 -4.7552825814755545e-01 0 0
4.305000000000e+11 0 0 -3.8476502286462363e-14 -5.0000000000000000e-01 -3.8476502286462363e-14 -5.0000000000000000e-01 0 0
4.306000000000e+11 0 0 -1.5450849718750440e-01 -4.7552825814756683e-01 -1.5450849718750440e-01 -4.7552825814756683e-01 0 0
4.307000000000e+11 0 0 -2.9389262614616563e-01 -4.0450849718752524e-01 -2.9389262614616563e-01 -4.0450849718752524e-01 0 0
4.308000000000e+11 0 0 -4.0450849718748533e-01 -2.9389262614622053e-01 -4.0450849718748533e-01 -2.9389262614622053e-01 0 0
4.309000000000e+11 0 0 -4.7552825814758098e-01 -1.5450849718746079e-01 -4.7552825814758098e-01 -1.5450849718746079e-01 0 0
4.310000000000e+11 0 0 -5.0000000000000000e-01 7.3596414269792981e-15 -5.0000000000000000e-01 7.3596414269792981e-15 0 0
4.311000000000e+11 0 0 -4.7552825814757643e-01 1.5450849718747478e-01 -4.7552825814757643e-01 1.5450849718747478e-01 0 0
4.312000000000e+11 0 0 -4.0450849718747672e-01 2.9389262614623246e-01 -4.0450849718747672e-01 2.9389262614623246e-01 0 0
4.313000000000e+11 0 0 -2.9389262614615375e-01 4.0450849718753390e-01 -2.9389262614615375e-01 4.0450849718753390e-01 0 0
4.314000000000e+11 0 0 -1.5450849718749038e-01 4.7552825814757138e-01 -1.5450849718749038e-01 4.7552825814757138e-01 0 0
4.315000000000e+11 0 0 8.9929618289112266e-14 5.0000000000000000e-01 8.9929618289112266e-14 5.0000000000000000e-01 0 0
4.316000000000e+11 0 0 1.5450849718755333e-01 4.7552825814755090e-01 1.5450849718755333e-01 4.7552825814755090e-01 0 0
4.317000000000e+11 0 0 2.9389262614620726e-01 4.0450849718749499e-01 2.9389262614620726e-01 4.0450849718749499e-01 0 0
4.318000000000e+11 0 0 4.0450849718751558e-01 2.9389262614617889e-01 4.0450849718751558e-01 2.9389262614617889e-01 0 0
4.319000000000e+11 0 0 4.7552825814759686e-01 1.5450849718741186e-01 4.7552825814759686e-01 1.5450849718741186e-01 0 0
4.320000000000e+11 0 0 5.0000000000000000e-01 5.4874080291986837e-14 5.0000000000000000e-01 5.4874080291986837e-14 0 0
4.321000000000e+11 0 0 4.7552825814756056e-01 -1.5450849718752374e-01 4.7552825814756056e-01 -1.5450849718752374e-01 0 0
4.322000000000e+11 0 0 4.0450849718744647e-01 -2.9389262614627409e-01 4.0450849718744647e-01 -2.9389262614627409e-01 0 0
4.323000000000e+11 0 0 2.9389262614620409e-01 -4.0450849718749732e-01 2.9389262614620409e-01 -4.0450849718749732e-01 0 0
4.324000000000e+11 0 0 1.5450849718744145e-01 -4.7552825814758726e-01 1.5450849718744145e-01 -4.7552825814758726e-01 0 0
4.325000000000e+11 0 0 -2.7695896570146126e-14 -5.0000000000000000e-01 -2.7695896570146126e-14 -5.0000000000000000e-01 0 0
4.326000000000e+11 0 0 -1.5450849718749413e-01 -4.7552825814757016e-01 -1.5450849718749413e-01 -4.7552825814757016e-01 0 0
4.327000000000e+11 0 0 -2.9389262614624889e-01 -4.0450849718746473e-01 -2.9389262614624889e-01 -4.0450849718746473e-01 0 0
4.328000000000e+11 0 0 -4.0450849718747900e-01 -2.9389262614622924e-01 -4.0450849718747900e-01 -2.9389262614622924e-01 0 0
4.329000000000e+11 0 0 -4.7552825814757765e-01 -1.5450849718747103e-01 -4.7552825814757765e-01 -1.5450849718747103e-01 0 0
4.330000000000e+11 0 0 -5.0000000000000000e-01 -3.4209642893369402e-15 -5.0000000000000000e-01 -3.4209642893369402e-15 0 0
4.331000000000e+11 0 0 -4.7552825814754462e-01 1.5450849718757267e-01 -4.7552825814754462e-01 1.5450849718757267e-01 0 0
4.332000000000e+11 0 0 -4.0450849718748305e-01 2.9389262614622375e-01 -4.0450849718748305e-01 2.9389262614622375e-01 0 0
4.333000000000e+11 0 0 -2.9389262614625444e-01 4.0450849718746074e-01 -2.9389262614625444e-01 4.0450849718746074e-01 0 0
4.334000000000e+11 0 0 -1.5450849718739251e-01 4.7552825814760319e-01 -1.5450849718739251e-01 4.7552825814760319e-01 0 0
4.335000000000e+11 0 0 -3.4537825148820008e-14 5.0000000000000000e-01 -3.4537825148820008e-14 5.0000000000000000e-01 0 0
4.336000000000e+11 0 0 1.5450849718743495e-01 4.7552825814758937e-01 1.5450849718743495e-01 4.7552825814758937e-01 0 0
4.337000000000e+11 0 0 2.9389262614629053e-01 4.0450849718743453e-01 2.9389262614629053e-01 4.0450849718743453e-01 0 0
4.338000000000e+11 0 0 4.0450849718744242e-01 2.9389262614627959e-01 4.0450849718744242e-01 2.9389262614627959e-01 0 0
4.339000000000e+11 0 0 4.7552825814759353e-01 1.5450849718742210e-01 4.7552825814759353e-01 1.5450849718742210e-01 0 0
4.340000000000e+11 0 0 5.0000000000000000e-01 -4.8032151713312955e-14 5.0000000000000000e-01 -4.8032151713312955e-14 0 0
4.341000000000e+11 0 0 4.7552825814759903e-01 -1.5450849718740536e-01 4.7552825814759903e-01 -1.5450849718740536e-01 0 0
4.342000000000e+11 0 0 4.0450849718745280e-01 -2.9389262614626532e-01 4.0450849718745280e-01 -2.9389262614626532e-01 0 0
4.343000000000e+11 0 0 2.9389262614621281e-01 -4.0450849718749099e-01 2.9389262614621281e-01 -4.0450849718749099e-01 0 0
4.344000000000e+11 0 0 1.5450849718745172e-01 -4.7552825814758393e-01 1.5450849718745172e-01 -4.7552825814758393e-01 0 0
4.345000000000e+11 0 0 -1.6915290853829888e-14 -5.0000000000000000e-01 -1.6915290853829888e-14 -5.0000000000000000e-01 0 0
4.346000000000e+11 0 0 -1.5450849718748388e-01 -4.7552825814757349e-01 -1.5450849718748388e-01 -4.7552825814757349e-01 0 0
4.347000000000e+11 0 0 -2.9389262614624018e-01 -4.0450849718747106e-01 -2.9389262614624018e-01 -4.0450849718747106e-01 0 0
4.348000000000e+11 0 0 -4.0450849718747267e-01 -2.9389262614623801e-01 -4.0450849718747267e-01 -2.9389262614623801e-01 0 0
4.349000000000e+11 0 0 -4.7552825814757432e-01 -1.5450849718748130e-01 -4.7552825814757432e-01 -1.5450849718748130e-01 0 0
4.350000000000e+11 0 0 -5.0000000000000000e-01 -1.4201570005653178e-14 -5.0000000000000000e-01 -1.4201570005653178e-14 0 0
4.351000000000e+11 0 0 -4.7552825814758309e-01 1.5450849718745430e-01 -4.7552825814758309e-01 1.5450849718745430e-01 0 0
4.352000000000e+11 0 0 -4.0450849718742254e-01 2.9389262614630696e-01 -4.0450849718742254e-01 2.9389262614630696e-01 0 0
4.353000000000e+11 0 0 -2.9389262614617118e-01 4.0450849718752119e-01 -2.9389262614617118e-01 4.0450849718752119e-01 0 0
4.354000000000e+11 0 0 -1.5450849718751089e-01 4.7552825814756472e-01 -1.5450849718751089e-01 4.7552825814756472e-01 0 0
4.355000000000e+11 0 0 6.8368406856479790e-14 5.0000000000000000e-01 6.8368406856479790e-14 5.0000000000000000e-01 0 0
4.356000000000e+11 0 0 1.5450849718753282e-01 4.7552825814755756e-01 1.5450849718753282e-01 4.7552825814755756e-01 0 0
4.357000000000e+11 0 0 2.9389262614618983e-01 4.0450849718750770e-01 2.9389262614618983e-01 4.0450849718750770e-01 0 0
4.358000000000e+11 0 0 4.0450849718750292e-01 2.9389262614619638e-01 4.0450849718750292e-01 2.9389262614619638e-01 0 0
4.359000000000e+11 0 0 4.7552825814759020e-01 1.5450849718743237e-01 4.7552825814759020e-01 1.5450849718743237e-01 0 0
4.360000000000e+11 0 0 5.0000000000000000e-01 -3.7251545996996717e-14 5.0000000000000000e-01 -3.7251545996996717e-14 0 0
4.361000000000e+11 0 0 4.7552825814756722e-01 -1.5450849718750323e-01 4.7552825814756722e-01 -1.5450849718750323e-01 0 0
4.362000000000e+11 0 0 4.0450849718745913e-01 -2.9389262614625661e-01 4.0450849718745913e-01 -2.9389262614625661e-01 0 0
4.363000000000e+11 0 0 2.9389262614622153e-01 -4.0450849718748466e-01 2.9389262614622153e-01 -4.0450849718748466e-01 0 0
4.364000000000e+11 0 0 1.5450849718746196e-01 -4.7552825814758060e-01 1.5450849718746196e-01 -4.7552825814758060e-01 0 0
4.365000000000e+11 0 0 -6.1346851375136504e-15 -5.0000000000000000e-01 -6.1346851375136504e-15 -5.0000000000000000e-01 0 0
4.366000000000e+11 0 0 -1.5450849718747361e-01 -4.7552825814757682e-01 -1.5450849718747361e-01 -4.7552825814757682e-01 0 0
4.367000000000e+11 0 0 -2.9389262614623146e-01 -4.0450849718747744e-01 -2.9389262614623146e-01 -4.0450849718747744e-01 0 0
4.368000000000e+11 0 0 -4.0450849718753318e-01 -2.9389262614615475e-01 -4.0450849718753318e-01 -2.9389262614615475e-01 0 0
4.369000000000e+11 0 0 -4.7552825814757099e-01 -1.5450849718749154e-01 -4.7552825814757099e-01 -1.5450849718749154e-01 0 0
4.370000000000e+11 0 0 -5.0000000000000000e-01 -2.4982175721969417e-14 -5.0000000000000000e-01 -2.4982175721969417e-14 0 0
4.371000000000e+11 0 0 -4.7552825814755129e-01 1.5450849718755216e-01 -4.7552825814755129e-01 1.5450849718755216e-01 0 0
4.372000000000e+11 0 0 -4.0450849718749571e-01 2.9389262614620626e-01 -4.0450849718749571e-01 2.9389262614620626e-01 0 0
4.373000000000e+11 0 0 -2.9389262614617989e-01 4.0450849718751486e-01 -2.9389262614617989e-01 4.0450849718751486e-01 0 0
4.374000000000e+11 0 0 -1.5450849718741302e-01 4.7552825814759653e-01 -1.5450849718741302e-01 4.7552825814759653e-01 0 0
4.375000000000e+11 0 0 -5.6099036581452484e-14 5.0000000000000000e-01 -5.6099036581452484e-14 5.0000000000000000e-01 0 0
4.376000000000e+11 0 0 1.5450849718752258e-01 4.7552825814756089e-01 1.5450849718752258e-01 4.7552825814756089e-01 0 0
4.377000000000e+11 0 0 2.9389262614627309e-01 4.0450849718744719e-01 2.9389262614627309e-01 4.0450849718744719e-01 0 0
4.378000000000e+11 0 0 4.0450849718742976e-01 2.9389262614629708e-01 4.0450849718742976e-01 2.9389262614629708e-01 0 0
4.379000000000e+11 0 0 4.7552825814758687e-01 1.5450849718744261e-01 4.7552825814758687e-01 1.5450849718744261e-01 0 0
4.380000000000e+11 0 0 5.0000000000000000e-01 -2.6470940280680479e-14 5.0000000000000000e-01 -2.6470940280680479e-14 0 0
4.381000000000e+11 0 0 4.7552825814757055e-01 -1.5450849718749296e-01 4.7552825814757055e-01 -1.5450849718749296e-01 0 0
4.382000000000e+11 0 0 4.0450849718746545e-01 -2.9389262614624789e-01 4.0450849718746545e-01 -2.9389262614624789e-01 0 0
4.383000000000e+11 0 0 2.9389262614623024e-01 -4.0450849718747828e-01 2.9389262614623024e-01 -4.0450849718747828e-01 0 0
4.384000000000e+11 0 0 1.5450849718747220e-01 -4.7552825814757727e-01 1.5450849718747220e-01 -4.7552825814757727e-01 0 0
4.385000000000e+11 0 0 4.6459205788025875e-15 -5.0000000000000000e-01 4.6459205788025875e-15 -5.0000000000000000e-01 0 0
4.386000000000e+11 0 0 -1.5450849718746337e-01 -4.7552825814758015e-01 -1.5450849718746337e-01 -4.7552825814758015e-01 0 0
4.387000000000e+11 0 0 -2.9389262614622275e-01 -4.0450849718748377e-01 -2.9389262614622275e-01 -4.0450849718748377e-01 0 0
4.388000000000e+11 0 0 -4.0450849718746001e-01 -2.9389262614625544e-01 -4.0450849718746001e-01 -2.9389262614625544e-01 0 0
4.389000000000e+11 0 0 -4.7552825814760280e-01 -1.5450849718739368e-01 -4.7552825814760280e-01 -1.5450849718739368e-01 0 0
4.390000000000e+11 0 0 -5.0000000000000000e-01 7.7924056283330375e-14 -5.0000000000000000e-01 7.7924056283330375e-14 0 0
4.391000000000e+11 0 0 -4.7552825814758976e-01 1.5450849718743379e-01 -4.7552825814758976e-01 1.5450849718743379e-01 0 0
4.392000000000e+11 0 0 -4.0450849718743520e-01 2.9389262614628953e-01 -4.0450849718743520e-01 2.9389262614628953e-01 0 0
4.393000000000e+11 0 0 -2.9389262614618861e-01 4.0450849718750853e-01 -2.9389262614618861e-01 4.0450849718750853e-01 0 0
4.394000000000e+11 0 0 -1.5450849718753140e-01 4.7552825814755806e-01 -1.5450849718753140e-01 4.7552825814755806e-01 0 0
4.395000000000e+11 0 0 4.6807195423847308e-14 5.0000000000000000e-01 4.6807195423847308e-14 5.0000000000000000e-01 0 0
4.396000000000e+11 0 0 1.5450849718751231e-01 4.7552825814756422e-01 1.5450849718751231e-01 4.7552825814756422e-01 0 0
4.397000000000e+11 0 0 2.9389262614626438e-01 4.0450849718745352e-01 2.9389262614626438e-01 4.0450849718745352e-01 0 0
4.398000000000e+11 0 0 4.0450849718749027e-01 2.9389262614621381e-01 4.0450849718749027e-01 2.9389262614621381e-01 0 0
4.399000000000e+11 0 0 4.7552825814758354e-01 1.5450849718745288e-01 4.7552825814758354e-01 1.5450849718745288e-01 0 0
4.400000000000e+11 0 0 5.0000000000000000e-01 -1.5690334564364241e-14 5.0000000000000000e-01 -1.5690334564364241e-14 0 0
4.401000000000e+11 0 0 4.7552825814757388e-01 -1.5450849718748272e-01 4.7552825814757388e-01 -1.5450849718748272e-01 0 0
4.402000000000e+11 0 0 4.0450849718740500e-01 -2.9389262614633116e-01 4.0450849718740500e-01 -2.9389262614633116e-01 0 0
4.403000000000e+11 0 0 2.9389262614623896e-01 -4.0450849718747195e-01 2.9389262614623896e-01 -4.0450849718747195e-01 0 0
4.404000000000e+11 0 0 1.5450849718748247e-01 -4.7552825814757393e-01 1.5450849718748247e-01 -4.7552825814757393e-01 0 0
4.405000000000e+11 0 0 -9.8260311426497210e-14 -5.0000000000000000e-01 -9.8260311426497210e-14 -5.0000000000000000e-01 0 0
4.406000000000e+11 0 0 -1.5450849718745313e-01 -4.7552825814758348e-01 -1.5450849718745313e-01 -4.7552825814758348e-01 0 0
4.407000000000e+11 0 0 -2.9389262614621403e-01 -4.0450849718749010e-01 -2.9389262614621403e-01 -4.0450849718749010e-01 0 0
4.408000000000e+11 0 0 -4.0450849718752052e-01 -2.9389262614617218e-01 -4.0450849718752052e-01 -2.9389262614617218e-01 0 0
4.409000000000e+11 0 0 -4.7552825814756433e-01 -1.5450849718751206e-01 -4.7552825814756433e-01 -1.5450849718751206e-01 0 0
4.410000000000e+11 0 0 -5.0000000000000000e-01 6.7143450567014137e-14 -5.0000000000000000e-01 6.7143450567014137e-14 0 0
4.411000000000e+11 0 0 -4.7552825814755795e-01 1.5450849718753165e-01 -4.7552825814755795e-01 1.5450849718753165e-01 0 0
4.412000000000e+11 0 0 -4.0450849718750836e-01 2.9389262614618883e-01 -4.0450849718750836e-01 2.9389262614618883e-01 0 0
4.413000000000e+11 0 0 -2.9389262614619738e-01 4.0450849718750220e-01 -2.9389262614619738e-01 4.0450849718750220e-01 0 0
4.414000000000e+11 0 0 -1.5450849718743354e-01 4.7552825814758987e-01 -1.5450849718743354e-01 4.7552825814758987e-01 0 0
4.415000000000e+11 0 0 -7.7660248014084954e-14 5.0000000000000000e-01 -7.7660248014084954e-14 5.0000000000000000e-01 0 0
4.416000000000e+11 0 0 1.5450849718750206e-01 4.7552825814756755e-01 1.5450849718750206e-01 4.7552825814756755e-01 0 0
4.417000000000e+11 0 0 2.9389262614625566e-01 4.0450849718745985e-01 2.9389262614625566e-01 4.0450849718745985e-01 0 0
4.418000000000e+11 0 0 4.0450849718748394e-01 2.9389262614622252e-01 4.0450849718748394e-01 2.9389262614622252e-01 0 0
4.419000000000e+11 0 0 4.7552825814758021e-01 1.5450849718746312e-01 4.7552825814758021e-01 1.5450849718746312e-01 0 0
4.420000000000e+11 0 0 5.0000000000000000e-01 -4.9097288480480028e-15 5.0000000000000000e-01 -4.9097288480480028e-15 0 0
4.421000000000e+11 0 0 4.7552825814757721e-01 -1.5450849718747245e-01 4.7552825814757721e-01 -1.5450849718747245e-01 0 0
4.422000000000e+11 0 0 4.0450849718747817e-01 -2.9389262614623046e-01 4.0450849718747817e-01 -2.9389262614623046e-01 0 0
4.423000000000e+11 0 0 2.9389262614624767e-01 -4.0450849718746562e-01 2.9389262614624767e-01 -4.0450849718746562e-01 0 0
4.424000000000e+11 0 0 1.5450849718749271e-01 -4.7552825814757060e-01 1.5450849718749271e-01 -4.7552825814757060e-01 0 0
4.425000000000e+11 0 0 2.6207132011435064e-14 -5.0000000000000000e-01 2.6207132011435064e-14 -5.0000000000000000e-01 0 0
4.426000000000e+11 0 0 -1.5450849718755100e-01 -4.7552825814755167e-01 -1.5450849718755100e-01 -4.7552825814755167e-01 0 0
4.427000000000e+11 0 0 -2.9389262614620532e-01 -4.0450849718749643e-01 -2.9389262614620532e-01 -4.0450849718749643e-01 0 0
4.428000000000e+11 0 0 -4.0450849718744730e-01 -2.9389262614627287e-01 -4.0450849718744730e-01 -2.9389262614627287e-01 0 0
4.429000000000e+11 0 0 -4.7552825814759614e-01 -1.5450849718741419e-01 -4.7552825814759614e-01 -1.5450849718741419e-01 0 0
4.430000000000e+11 0 0 -5.0000000000000000e-01 5.6362844850697899e-14 -5.0000000000000000e-01 5.6362844850697899e-14 0 0
4.431000000000e+11 0 0 -4.7552825814756128e-01 1.5450849718752141e-01 -4.7552825814756128e-01 1.5450849718752141e-01 0 0
4.432000000000e+11 0 0 -4.0450849718744791e-01 2.9389262614627210e-01 -4.0450849718744791e-01 2.9389262614627210e-01 0 0
4.433000000000e+11 0 0 -2.9389262614620609e-01 4.0450849718749587e-01 -2.9389262614620609e-01 4.0450849718749587e-01 0 0
4.434000000000e+11 0 0 -1.5450849718744378e-01 4.7552825814758654e-01 -1.5450849718744378e-01 4.7552825814758654e-01 0 0
4.435000000000e+11 0 0 2.5245983991214832e-14 5.0000000000000000e-01 2.5245983991214832e-14 5.0000000000000000e-01 0 0
4.436000000000e+11 0 0 1.5450849718749179e-01 4.7552825814757094e-01 1.5450849718749179e-01 4.7552825814757094e-01 0 0
4.437000000000e+11 0 0 2.9389262614624689e-01 4.0450849718746618e-01 2.9389262614624689e-01 4.0450849718746618e-01 0 0
4.438000000000e+11 0 0 4.0450849718747756e-01 2.9389262614623124e-01 4.0450849718747756e-01 2.9389262614623124e-01 0 0
4.439000000000e+11 0 0 4.7552825814761202e-01 1.5450849718736526e-01 4.7552825814761202e-01 1.5450849718736526e-01 0 0
4.440000000000e+11 0 0 5.0000000000000000e-01 5.8708768682682352e-15 5.0000000000000000e-01 5.8708768682682352e-15 0 0
4.441000000000e+11 0 0 4.7552825814758054e-01 -1.5450849718746221e-01 4.7552825814758054e-01 -1.5450849718746221e-01 0 0
4.442000000000e+11 0 0 4.0450849718741766e-01 -2.9389262614631373e-01 4.0450849718741766e-01 -2.9389262614631373e-01 0 0
4.443000000000e+11 0 0 2.9389262614625644e-01 -4.0450849718745929e-01 2.9389262614625644e-01 -4.0450849718745929e-01 0 0
4.444000000000e+11 0 0 1.5450849718750298e-01 -4.7552825814756727e-01 1.5450849718750298e-01 -4.7552825814756727e-01 0 0
4.445000000000e+11 0 0 -7.6699099993864734e-14 -5.0000000000000000e-01 -7.6699099993864734e-14 -5.0000000000000000e-01 0 0
4.446000000000e+11 0 0 -1.5450849718743262e-01 -4.7552825814759014e-01 -1.5450849718743262e-01 -4.7552825814759014e-01 0 0
4.447000000000e+11 0 0 -2.9389262614628853e-01 -4.0450849718743592e-01 -2.9389262614628853e-01 -4.0450849718743592e-01 0 0
4.448000000000e+11 0 0 -4.0450849718750781e-01 -2.9389262614618961e-01 -4.0450849718750781e-01 -2.9389262614618961e-01 0 0
4.449000000000e+11 0 0 -4.7552825814755767e-01 -1.5450849718753257e-01 -4.7552825814755767e-01 -1.5450849718753257e-01 0 0
4.450000000000e+11 0 0 -5.0000000000000000e-01 4.5582239134381661e-14 -5.0000000000000000e-01 4.5582239134381661e-14 0 0
4.451000000000e+11 0 0 -4.7552825814756461e-01 1.5450849718751114e-01 -4.7552825814756461e-01 1.5450849718751114e-01 0 0
4.452000000000e+11 0 0 -4.0450849718752108e-01 2.9389262614617140e-01 -4.0450849718752108e-01 2.9389262614617140e-01 0 0
4.453000000000e+11 0 0 -2.9389262614621481e-01 4.0450849718748955e-01 -2.9389262614621481e-01 4.0450849718748955e-01 0 0
4.454000000000e+11 0 0 -1.5450849718745405e-01 4.7552825814758320e-01 -1.5450849718745405e-01 4.7552825814758320e-01 0 0
4.455000000000e+11 0 0 1.4465378274898594e-14 5.0000000000000000e-01 1.4465378274898594e-14 5.0000000000000000e-01 0 0
4.456000000000e+11 0 0 1.5450849718748155e-01 4.7552825814757421e-01 1.5450849718748155e-01 4.7552825814757421e-01 0 0
4.457000000000e+11 0 0 2.9389262614623818e-01 4.0450849718747250e-01 2.9389262614623818e-01 4.0450849718747250e-01 0 0
4.458000000000e+11 0 0 4.0450849718747123e-01 2.9389262614623995e-01 4.0450849718747123e-01 2.9389262614623995e-01 0 0
4.459000000000e+11 0 0 4.7552825814757355e-01 1.5450849718748363e-01 4.7552825814757355e-01 1.5450849718748363e-01 0 0
4.460000000000e+11 0 0 5.0000000000000000e-01 -9.7035355137031557e-14 5.0000000000000000e-01 -9.7035355137031557e-14 0 0
4.461000000000e+11 0 0 4.7552825814758387e-01 -1.5450849718745197e-01 4.7552825814758387e-01 -1.5450849718745197e-01 0 0
4.462000000000e+11 0 0 4.0450849718749082e-01 -2.9389262614621303e-01 4.0450849718749082e-01 -2.9389262614621303e-01 0 0
4.463000000000e+11 0 0 2.9389262614617317e-01 -4.0450849718751980e-01 2.9389262614617317e-01 -4.0450849718751980e-01 0 0
4.464000000000e+11 0 0 1.5450849718751322e-01 -4.7552825814756394e-01 1.5450849718751322e-01 -4.7552825814756394e-01 0 0
4.465000000000e+11 0 0 4.7768343444067540e-14 -5.0000000000000000e-01 4.7768343444067540e-14 -5.0000000000000000e-01 0 0
4.466000000000e+11 0 0 -1.5450849718753049e-01 -4.7552825814755834e-01 -1.5450849718753049e-01 -4.7552825814755834e-01 0 0
4.467000000000e+11 0 0 -2.9389262614627981e-01 -4.0450849718744225e-01 -2.9389262614627981e-01 -4.0450849718744225e-01 0 0
4.468000000000e+11 0 0 -4.0450849718750148e-01 -2.9389262614619832e-01 -4.0450849718750148e-01 -2.9389262614619832e-01 0 0
4.469000000000e+11 0 0 -4.7552825814758948e-01 -1.5450849718743470e-01 -4.7552825814758948e-01 -1.5450849718743470e-01 0 0
4.470000000000e+11 0 0 -5.0000000000000000e-01 3.4801633418065423e-14 -5.0000000000000000e-01 3.4801633418065423e-14 0 0
4.471000000000e+11 0 0 -4.7552825814756794e-01 1.5450849718750090e-01 -4.7552825814756794e-01 1.5450849718750090e-01 0 0
4.472000000000e+11 0 0 -4.0450849718746057e-01 2.9389262614625467e-01 -4.0450849718746057e-01 2.9389262614625467e-01 0 0
4.473000000000e+11 0 0 -2.9389262614622352e-01 4.0450849718748322e-01 -2.9389262614622352e-01 4.0450849718748322e-01 0 0
4.474000000000e+11 0 0 -1.5450849718746429e-01 4.7552825814757987e-01 -1.5450849718746429e-01 4.7552825814757987e-01 0 0
4.475000000000e+11 0 0 3.6847725585823559e-15 5.0000000000000000e-01 3.6847725585823559e-15 5.0000000000000000e-01 0 0
4.476000000000e+11 0 0 1.5450849718757942e-01 4.7552825814754246e-01 1.5450849718757942e-01 4.7552825814754246e-01 0 0
4.477000000000e+11 0 0 2.9389262614622946e-01 4.0450849718747889e-01 2.9389262614622946e-01 4.0450849718747889e-01 0 0
4.478000000000e+11 0 0 4.0450849718746490e-01 2.9389262614624867e-01 4.0450849718746490e-01 2.9389262614624867e-01 0 0
4.479000000000e+11 0 0 4.7552825814760535e-01 1.5450849718738577e-01 4.7552825814760535e-01 1.5450849718738577e-01 0 0
4.480000000000e+11 0 0 5.0000000000000000e-01 2.7432088300900711e-14 5.0000000000000000e-01 2.7432088300900711e-14 0 0
4.481000000000e+11 0 0 4.7552825814758720e-01 -1.5450849718744170e-01 4.7552825814758720e-01 -1.5450849718744170e-01 0 0
4.482000000000e+11 0 0 4.0450849718743032e-01 -2.9389262614629630e-01 4.0450849718743032e-01 -2.9389262614629630e-01 0 0
4.483000000000e+11 0 0 2.9389262614627387e-01 -4.0450849718744664e-01 2.9389262614627387e-01 -4.0450849718744664e-01 0 0
4.484000000000e+11 0 0 1.5450849718741536e-01 -4.7552825814759575e-01 1.5450849718741536e-01 -4.7552825814759575e-01 0 0
4.485000000000e+11 0 0 -5.5137888561232252e-14 -5.0000000000000000e-01 -5.5137888561232252e-14 -5.0000000000000000e-01 0 0
4.486000000000e+11 0 0 -1.5450849718741211e-01 -4.7552825814759681e-01 -1.5450849718741211e-01 -4.7552825814759681e-01 0 0
4.487000000000e+11 0 0 -2.9389262614627110e-01 -4.0450849718744863e-01 -2.9389262614627110e-01 -4.0450849718744863e-01 0 0
4.488000000000e+11 0 0 -4.0450849718749515e-01 -2.9389262614620704e-01 -4.0450849718749515e-01 -2.9389262614620704e-01 0 0
4.489000000000e+11 0 0 -4.7552825814755101e-01 -1.5450849718755308e-01 -4.7552825814755101e-01 -1.5450849718755308e-01 0 0
4.490000000000e+11 0 0 -5.0000000000000000e-01 2.4021027701749185e-14 -5.0000000000000000e-01 2.4021027701749185e-14 0 0
4.491000000000e+11 0 0 -4.7552825814757127e-01 1.5450849718749063e-01 -4.7552825814757127e-01 1.5450849718749063e-01 0 0
4.492000000000e+11 0 0 -4.0450849718746690e-01 2.9389262614624595e-01 -4.0450849718746690e-01 2.9389262614624595e-01 0 0
4.493000000000e+11 0 0 -2.9389262614623224e-01 4.0450849718747683e-01 -2.9389262614623224e-01 4.0450849718747683e-01 0 0
4.494000000000e+11 0 0 -1.5450849718747453e-01 4.7552825814757649e-01 -1.5450849718747453e-01 4.7552825814757649e-01 0 0
4.495000000000e+11 0 0 -7.0958331577338821e-15 5.0000000000000000e-01 -7.0958331577338821e-15 5.0000000000000000e-01 0 0
4.496000000000e+11 0 0 1.5450849718746104e-01 4.7552825814758093e-01 1.5450849718746104e-01 4.7552825814758093e-01 0 0
4.497000000000e+11 0 0 2.9389262614631273e-01 4.0450849718741838e-01 2.9389262614631273e-01 4.0450849718741838e-01 0 0
4.498000000000e+11 0 0 4.0450849718745857e-01 2.9389262614625739e-01 4.0450849718745857e-01 2.9389262614625739e-01 0 0
4.499000000000e+11 0 0 4.7552825814756688e-01 1.5450849718750415e-01 4.7552825814756688e-01 1.5450849718750415e-01 0 0
4.500000000000e+11 0 0 5.0000000000000000e-01 -7.5474143704399081e-14 5.0000000000000000e-01 -7.5474143704399081e-14 0 0
4.501000000000e+11 0 0 4.7552825814759053e-01 -1.5450849718743145e-01 4.7552825814759053e-01 -1.5450849718743145e-01 0 0
4.502000000000e+11 0 0 4.0450849718750348e-01 -2.9389262614619560e-01 4.0450849718750348e-01 -2.9389262614619560e-01 0 0
4.503000000000e+11 0 0 2.9389262614619061e-01 -4.0450849718750709e-01 2.9389262614619061e-01 -4.0450849718750709e-01 0 0
4.504000000000e+11 0 0 1.5450849718753373e-01 -4.7552825814755728e-01 1.5450849718753373e-01 -4.7552825814755728e-01 0 0
4.505000000000e+11 0 0 -4.4357282844916014e-14 -5.0000000000000000e-01 -4.4357282844916014e-14 -5.0000000000000000e-01 0 0
4.506000000000e+11 0 0 -1.5450849718750997e-01 -4.7552825814756500e-01 -1.5450849718750997e-01 -4.7552825814756500e-01 0 0
4.507000000000e+11 0 0 -2.9389262614626238e-01 -4.0450849718745496e-01 -2.9389262614626238e-01 -4.0450849718745496e-01 0 0
4.508000000000e+11 0 0 -4.0450849718748882e-01 -2.9389262614621581e-01 -4.0450849718748882e-01 -2.9389262614621581e-01 0 0
4.509000000000e+11 0 0 -4.7552825814758282e-01 -1.5450849718745521e-01 -4.7552825814758282e-01 -1.5450849718745521e-01 0 0
4.510000000000e+11 0 0 -5.0000000000000000e-01 1.3240421985432947e-14 -5.0000000000000000e-01 1.3240421985432947e-14 0 0
4.511000000000e+11 0 0 -4.7552825814757460e-01 1.5450849718748039e-01 -4.7552825814757460e-01 1.5450849718748039e-01 0 0
4.512000000000e+11 0 0 -4.0450849718747323e-01 2.9389262614623723e-01 -4.0450849718747323e-01 2.9389262614623723e-01 0 0
4.513000000000e+11 0 0 -2.9389262614614897e-01 4.0450849718753734e-01 -2.9389262614614897e-01 4.0450849718753734e-01 0 0
4.514000000000e+11 0 0 -1.5450849718748480e-01 4.7552825814757316e-01 -1.5450849718748480e-01 4.7552825814757316e-01 0 0
4.515000000000e+11 0 0 -1.7876438874050120e-14 5.0000000000000000e-01 -1.7876438874050120e-14 5.0000000000000000e-01 0 0
4.516000000000e+11 0 0 1.5450849718755891e-01 4.7552825814754912e-01 1.5450849718755891e-01 4.7552825814754912e-01 0 0
4.517000000000e+11 0 0 2.9389262614621203e-01 4.0450849718749154e-01 2.9389262614621203e-01 4.0450849718749154e-01 0 0
4.518000000000e+11 0 0 4.0450849718745224e-01 2.9389262614626610e-01 4.0450849718745224e-01 2.9389262614626610e-01 0 0
4.519000000000e+11 0 0 4.7552825814759869e-01 1.5450849718740628e-01 4.7552825814759869e-01 1.5450849718740628e-01 0 0
4.520000000000e+11 0 0 5.0000000000000000e-01 4.8993299733533187e-14 5.0000000000000000e-01 4.8993299733533187e-14 0 0
4.521000000000e+11 0 0 4.7552825814755872e-01 -1.5450849718752932e-01 4.7552825814755872e-01 -1.5450849718752932e-01 0 0
4.522000000000e+11 0 0 4.0450849718744303e-01 -2.9389262614627881e-01 4.0450849718744303e-01 -2.9389262614627881e-01 0 0
4.523000000000e+11 0 0 2.9389262614629130e-01 -4.0450849718743392e-01 2.9389262614629130e-01 -4.0450849718743392e-01 0 0
4.524000000000e+11 0 0 1.5450849718743587e-01 -4.7552825814758909e-01 1.5450849718743587e-01 -4.7552825814758909e-01 0 0
4.525000000000e+11 0 0 -3.3576677128599776e-14 -5.0000000000000000e-01 -3.3576677128599776e-14 -5.0000000000000000e-01 0 0
4.526000000000e+11 0 0 -1.5450849718749973e-01 -4.7552825814756833e-01 -1.5450849718749973e-01 -4.7552825814756833e-01 0 0
4.527000000000e+11 0 0 -2.9389262614625367e-01 -4.0450849718746129e-01 -2.9389262614625367e-01 -4.0450849718746129e-01 0 0
4.528000000000e+11 0 0 -4.0450849718748250e-01 -2.9389262614622452e-01 -4.0450849718748250e-01 -2.9389262614622452e-01 0 0
4.529000000000e+11 0 0 -4.7552825814757949e-01 -1.5450849718746545e-01 -4.7552825814757949e-01 -1.5450849718746545e-01 0 0
4.530000000000e+11 0 0 -5.0000000000000000e-01 2.4598162691167086e-15 -5.0000000000000000e-01 2.4598162691167086e-15 0 0
4.531000000000e+11 0 0 -4.7552825814757793e-01 1.5450849718747015e-01 -4.7552825814757793e-01 1.5450849718747015e-01 0 0
4.532000000000e+11 0 0 -4.0450849718747955e-01 2.9389262614622846e-01 -4.0450849718747955e-01 2.9389262614622846e-01 0 0
4.533000000000e+11 0 0 -2.9389262614624967e-01 4.0450849718746418e-01 -2.9389262614624967e-01 4.0450849718746418e-01 0 0
4.534000000000e+11 0 0 -1.5450849718738693e-01 4.7552825814760497e-01 -1.5450849718738693e-01 4.7552825814760497e-01 0 0
4.535000000000e+11 0 0 -2.8657044590366358e-14 5.0000000000000000e-01 -2.8657044590366358e-14 5.0000000000000000e-01 0 0
4.536000000000e+11 0 0 1.5450849718744053e-01 4.7552825814758759e-01 1.5450849718744053e-01 4.7552825814758759e-01 0 0
4.537000000000e+11 0 0 2.9389262614629530e-01 4.0450849718743104e-01 2.9389262614629530e-01 4.0450849718743104e-01 0 0
4.538000000000e+11 0 0 4.0450849718744591e-01 2.9389262614627487e-01 4.0450849718744591e-01 2.9389262614627487e-01 0 0
4.539000000000e+11 0 0 4.7552825814756022e-01 1.5450849718752463e-01 4.7552825814756022e-01 1.5450849718752463e-01 0 0
4.540000000000e+11 0 0 5.0000000000000000e-01 -5.3912932271766605e-14 5.0000000000000000e-01 -5.3912932271766605e-14 0 0
4.541000000000e+11 0 0 4.7552825814759719e-01 -1.5450849718741094e-01 4.7552825814759719e-01 -1.5450849718741094e-01 0 0
4.542000000000e+11 0 0 4.0450849718744936e-01 -2.9389262614627010e-01 4.0450849718744936e-01 -2.9389262614627010e-01 0 0
4.543000000000e+11 0 0 2.9389262614620804e-01 -4.0450849718749443e-01 2.9389262614620804e-01 -4.0450849718749443e-01 0 0
4.544000000000e+11 0 0 1.5450849718744611e-01 -4.7552825814758576e-01 1.5450849718744611e-01 -4.7552825814758576e-01 0 0
4.545000000000e+11 0 0 -2.2796071412283538e-14 -5.0000000000000000e-01 -2.2796071412283538e-14 -5.0000000000000000e-01 0 0
4.546000000000e+11 0 0 -1.5450849718748946e-01 -4.7552825814757166e-01 -1.5450849718748946e-01 -4.7552825814757166e-01 0 0
4.547000000000e+11 0 0 -2.9389262614624495e-01 -4.0450849718746762e-01 -2.9389262614624495e-01 -4.0450849718746762e-01 0 0
4.548000000000e+11 0 0 -4.0450849718747617e-01 -2.9389262614623324e-01 -4.0450849718747617e-01 -2.9389262614623324e-01 0 0
4.549000000000e+11 0 0 -4.7552825814757615e-01 -1.5450849718747570e-01 -4.7552825814757615e-01 -1.5450849718747570e-01 0 0
4.550000000000e+11 0 0 -5.0000000000000000e-01 1.0536604827441650e-13 -5.0000000000000000e-01 1.0536604827441650e-13 0 0
4.551000000000e+11 0 0 -4.7552825814758126e-01 1.5450849718745988e-01 -4.7552825814758126e-01 1.5450849718745988e-01 0 0
4.552000000000e+11 0 0 -4.0450849718748594e-01 2.9389262614621975e-01 -4.0450849718748594e-01 2.9389262614621975e-01 0 0
4.553000000000e+11 0 0 -2.9389262614616640e-01 4.0450849718752468e-01 -2.9389262614616640e-01 4.0450849718752468e-01 0 0
4.554000000000e+11 0 0 -1.5450849718750531e-01 4.7552825814756650e-01 -1.5450849718750531e-01 4.7552825814756650e-01 0 0
4.555000000000e+11 0 0 7.4249187414933428e-14 5.0000000000000000e-01 7.4249187414933428e-14 5.0000000000000000e-01 0 0
4.556000000000e+11 0 0 1.5450849718753840e-01 4.7552825814755578e-01 1.5450849718753840e-01 4.7552825814755578e-01 0 0
4.557000000000e+11 0 0 2.9389262614619460e-01 4.0450849718750420e-01 2.9389262614619460e-01 4.0450849718750420e-01 0 0
4.558000000000e+11 0 0 4.0450849718750637e-01 2.9389262614619160e-01 4.0450849718750637e-01 2.9389262614619160e-01 0 0
4.559000000000e+11 0 0 4.7552825814759203e-01 1.5450849718742676e-01 4.7552825814759203e-01 1.5450849718742676e-01 0 0
4.560000000000e+11 0 0 5.0000000000000000e-01 7.0554511166165663e-14 5.0000000000000000e-01 7.0554511166165663e-14 0 0
4.561000000000e+11 0 0 4.7552825814756539e-01 -1.5450849718750881e-01 4.7552825814756539e-01 -1.5450849718750881e-01 0 0
4.562000000000e+11 0 0 4.0450849718745568e-01 -2.9389262614626138e-01 4.0450849718745568e-01 -2.9389262614626138e-01 0 0
4.563000000000e+11 0 0 2.9389262614621675e-01 -4.0450849718748810e-01 2.9389262614621675e-01 -4.0450849718748810e-01 0 0
4.564000000000e+11 0 0 1.5450849718745638e-01 -4.7552825814758243e-01 1.5450849718745638e-01 -4.7552825814758243e-01 0 0
4.565000000000e+11 0 0 -1.2015465695967298e-14 -5.0000000000000000e-01 -1.2015465695967298e-14 -5.0000000000000000e-01 0 0
4.566000000000e+11 0 0 -1.5450849718747922e-01 -4.7552825814757499e-01 -1.5450849718747922e-01 -4.7552825814757499e-01 0 0
4.567000000000e+11 0 0 -2.9389262614623624e-01 -4.0450849718747395e-01 -2.9389262614623624e-01 -4.0450849718747395e-01 0 0
4.568000000000e+11 0 0 -4.0450849718746978e-01 -2.9389262614624195e-01 -4.0450849718746978e-01 -2.9389262614624195e-01 0 0
4.569000000000e+11 0 0 -4.7552825814757282e-01 -1.5450849718748597e-01 -4.7552825814757282e-01 -1.5450849718748597e-01 0 0
4.570000000000e+11 0 0 -5.0000000000000000e-01 -1.9101395163515767e-14 -5.0000000000000000e-01 -1.9101395163515767e-14 0 0
4.571000000000e+11 0 0 -4.7552825814754945e-01 1.5450849718755774e-01 -4.7552825814754945e-01 1.5450849718755774e-01 0 0
4.572000000000e+11 0 0 -4.0450849718749227e-01 2.9389262614621103e-01 -4.0450849718749227e-01 2.9389262614621103e-01 0 0
4.573000000000e+11 0 0 -2.9389262614626710e-01 4.0450849718745152e-01 -2.9389262614626710e-01 4.0450849718745152e-01 0 0
4.574000000000e+11 0 0 -1.5450849718740742e-01 4.7552825814759830e-01 -1.5450849718740742e-01 4.7552825814759830e-01 0 0
4.575000000000e+11 0 0 -5.0218256022998834e-14 5.0000000000000000e-01 -5.0218256022998834e-14 5.0000000000000000e-01 0 0
4.576000000000e+11 0 0 1.5450849718742005e-01 4.7552825814759425e-01 1.5450849718742005e-01 4.7552825814759425e-01 0 0
4.577000000000e+11 0 0 2.9389262614627787e-01 4.0450849718744369e-01 2.9389262614627787e-01 4.0450849718744369e-01 0 0
4.578000000000e+11 0 0 4.0450849718743320e-01 2.9389262614629230e-01 4.0450849718743320e-01 2.9389262614629230e-01 0 0
4.579000000000e+11 0 0 4.7552825814758870e-01 1.5450849718743703e-01 4.7552825814758870e-01 1.5450849718743703e-01 0 0
4.580000000000e+11 0 0 5.0000000000000000e-01 -3.2351720839134129e-14 5.0000000000000000e-01 -3.2351720839134129e-14 0 0
4.581000000000e+11 0 0 4.7552825814760386e-01 -1.5450849718739043e-01 4.7552825814760386e-01 -1.5450849718739043e-01 0 0
4.582000000000e+11 0 0 4.0450849718746201e-01 -2.9389262614625267e-01 4.0450849718746201e-01 -2.9389262614625267e-01 0 0
4.583000000000e+11 0 0 2.9389262614622547e-01 -4.0450849718748177e-01 2.9389262614622547e-01 -4.0450849718748177e-01 0 0
4.584000000000e+11 0 0 1.5450849718735848e-01 -4.7552825814761424e-01 1.5450849718735848e-01 -4.7552825814761424e-01 0 0
4.585000000000e+11 0 0 -1.2348599796510611e-15 -5.0000000000000000e-01 -1.2348599796510611e-15 -5.0000000000000000e-01 0 0
4.586000000000e+11 0 0 -1.5450849718746898e-01 -4.7552825814757832e-01 -1.5450849718746898e-01 -4.7552825814757832e-01 0 0
4.587000000000e+11 0 0 -2.9389262614631945e-01 -4.0450849718741350e-01 -2.9389262614631945e-01 -4.0450849718741350e-01 0 0
4.588000000000e+11 0 0 -4.0450849718746346e-01 -2.9389262614625067e-01 -4.0450849718746346e-01 -2.9389262614625067e-01 0 0
4.589000000000e+11 0 0 -4.7552825814756949e-01 -1.5450849718749621e-01 -4.7552825814756949e-01 -1.5450849718749621e-01 0 0
4.590000000000e+11 0 0 -5.0000000000000000e-01 8.3804836841784025e-14 -5.0000000000000000e-01 8.3804836841784025e-14 0 0
4.591000000000e+11 0 0 -4.7552825814758792e-01 1.5450849718743936e-01 -4.7552825814758792e-01 1.5450849718743936e-01 0 0
4.592000000000e+11 0 0 -4.0450849718743176e-01 2.9389262614629430e-01 -4.0450849718743176e-01 2.9389262614629430e-01 0 0
4.593000000000e+11 0 0 -2.9389262614618389e-01 4.0450849718751197e-01 -2.9389262614618389e-01 4.0450849718751197e-01 0 0
4.594000000000e+11 0 0 -1.5450849718752580e-01 4.7552825814755983e-01 -1.5450849718752580e-01 4.7552825814755983e-01 0 0
4.595000000000e+11 0 0 5.2687975982300958e-14 5.0000000000000000e-01 5.2687975982300958e-14 5.0000000000000000e-01 0 0
4.596000000000e+11 0 0 1.5450849718751791e-01 4.7552825814756244e-01 1.5450849718751791e-01 4.7552825814756244e-01 0 0
4.597000000000e+11 0 0 2.9389262614617717e-01 4.0450849718751686e-01 2.9389262614617717e-01 4.0450849718751686e-01 0 0
4.598000000000e+11 0 0 4.0450849718749371e-01 2.9389262614620904e-01 4.0450849718749371e-01 2.9389262614620904e-01 0 0
4.599000000000e+11 0 0 4.7552825814758537e-01 1.5450849718744727e-01 4.7552825814758537e-01 1.5450849718744727e-01 0 0
4.600000000000e+11 0 0 5.0000000000000000e-01 -2.1571115122817891e-14 5.0000000000000000e-01 -2.1571115122817891e-14 0 0
4.601000000000e+11 0 0 4.7552825814757205e-01 -1.5450849718748830e-01 4.7552825814757205e-01 -1.5450849718748830e-01 0 0
4.602000000000e+11 0 0 4.0450849718746834e-01 -2.9389262614624395e-01 4.0450849718746834e-01 -2.9389262614624395e-01 0 0
4.603000000000e+11 0 0 2.9389262614623424e-01 -4.0450849718747539e-01 2.9389262614623424e-01 -4.0450849718747539e-01 0 0
4.604000000000e+11 0 0 1.5450849718747686e-01 -4.7552825814757577e-01 1.5450849718747686e-01 -4.7552825814757577e-01 0 0
4.605000000000e+11 0 0 9.5457457366651774e-15 -5.0000000000000000e-01 9.5457457366651774e-15 -5.0000000000000000e-01 0 0
4.606000000000e+11 0 0 -1.5450849718745871e-01 -4.7552825814758165e-01 -1.5450849718745871e-01 -4.7552825814758165e-01 0 0
4.607000000000e+11 0 0 -2.9389262614621875e-01 -4.0450849718748666e-01 -2.9389262614621875e-01 -4.0450849718748666e-01 0 0
4.608000000000e+11 0 0 -4.0450849718752396e-01 -2.9389262614616740e-01 -4.0450849718752396e-01 -2.9389262614616740e-01 0 0
4.609000000000e+11 0 0 -4.7552825814756616e-01 -1.5450849718750648e-01 -4.7552825814756616e-01 -1.5450849718750648e-01 0 0
4.610000000000e+11 0 0 -5.0000000000000000e-01 -4.0662606596148243e-14 -5.0000000000000000e-01 -4.0662606596148243e-14 0 0
4.611000000000e+11 0 0 -4.7552825814755612e-01 1.5450849718753723e-01 -4.7552825814755612e-01 1.5450849718753723e-01 0 0
4.612000000000e+11 0 0 -4.0450849718750492e-01 2.9389262614619360e-01 -4.0450849718750492e-01 2.9389262614619360e-01 0 0
4.613000000000e+11 0 0 -2.9389262614619260e-01 4.0450849718750564e-01 -2.9389262614619260e-01 4.0450849718750564e-01 0 0
4.614000000000e+11 0 0 -1.5450849718742793e-01 4.7552825814759164e-01 -1.5450849718742793e-01 4.7552825814759164e-01 0 0
4.615000000000e+11 0 0 -7.1779467455631316e-14 5.0000000000000000e-01 -7.1779467455631316e-14 5.0000000000000000e-01 0 0
4.616000000000e+11 0 0 1.5450849718750764e-01 4.7552825814756577e-01 1.5450849718750764e-01 4.7552825814756577e-01 0 0
4.617000000000e+11 0 0 2.9389262614626038e-01 4.0450849718745641e-01 2.9389262614626038e-01 4.0450849718745641e-01 0 0
4.618000000000e+11 0 0 4.0450849718742055e-01 2.9389262614630973e-01 4.0450849718742055e-01 2.9389262614630973e-01 0 0
4.619000000000e+11 0 0 4.7552825814758204e-01 1.5450849718745754e-01 4.7552825814758204e-01 1.5450849718745754e-01 0 0
4.620000000000e+11 0 0 5.0000000000000000e-01 -1.0790509406501652e-14 5.0000000000000000e-01 -1.0790509406501652e-14 0 0
4.621000000000e+11 0 0 4.7552825814754024e-01 -1.5450849718758619e-01 4.7552825814754024e-01 -1.5450849718758619e-01 0 0
4.622000000000e+11 0 0 4.0450849718747467e-01 -2.9389262614623524e-01 4.0450849718747467e-01 -2.9389262614623524e-01 0 0
4.623000000000e+11 0 0 2.9389262614624295e-01 -4.0450849718746906e-01 2.9389262614624295e-01 -4.0450849718746906e-01 0 0
4.624000000000e+11 0 0 1.5450849718737900e-01 -4.7552825814760757e-01 1.5450849718737900e-01 -4.7552825814760757e-01 0 0
4.625000000000e+11 0 0 2.0326351452981414e-14 -5.0000000000000000e-01 2.0326351452981414e-14 -5.0000000000000000e-01 0 0
4.626000000000e+11 0 0 -1.5450849718744847e-01 -4.7552825814758498e-01 -1.5450849718744847e-01 -4.7552825814758498e-01 0 0
4.627000000000e+11 0 0 -2.9389262614630202e-01 -4.0450849718742615e-01 -2.9389262614630202e-01 -4.0450849718742615e-01 0 0
4.628000000000e+11 0 0 -4.0450849718745080e-01 -2.9389262614626810e-01 -4.0450849718745080e-01 -2.9389262614626810e-01 0 0
4.629000000000e+11 0 0 -4.7552825814759797e-01 -1.5450849718740858e-01 -4.7552825814759797e-01 -1.5450849718740858e-01 0 0
4.630000000000e+11 0 0 -5.0000000000000000e-01 6.2243625409151549e-14 -5.0000000000000000e-01 6.2243625409151549e-14 0 0
4.631000000000e+11 0 0 -4.7552825814759458e-01 1.5450849718741888e-01 -4.7552825814759458e-01 1.5450849718741888e-01 0 0
4.632000000000e+11 0 0 -4.0450849718744442e-01 2.9389262614627687e-01 -4.0450849718744442e-01 2.9389262614627687e-01 0 0
4.633000000000e+11 0 0 -2.9389262614620132e-01 4.0450849718749932e-01 -2.9389262614620132e-01 4.0450849718749932e-01 0 0
4.634000000000e+11 0 0 -1.5450849718754631e-01 4.7552825814755317e-01 -1.5450849718754631e-01 4.7552825814755317e-01 0 0
4.635000000000e+11 0 0 3.1126764549668482e-14 5.0000000000000000e-01 3.1126764549668482e-14 5.0000000000000000e-01 0 0
4.636000000000e+11 0 0 1.5450849718749740e-01 4.7552825814756911e-01 1.5450849718749740e-01 4.7552825814756911e-01 0 0
4.637000000000e+11 0 0 2.9389262614625167e-01 4.0450849718746273e-01 2.9389262614625167e-01 4.0450849718746273e-01 0 0
4.638000000000e+11 0 0 4.0450849718748105e-01 2.9389262614622647e-01 4.0450849718748105e-01 2.9389262614622647e-01 0 0
4.639000000000e+11 0 0 4.7552825814757871e-01 1.5450849718746779e-01 4.7552825814757871e-01 1.5450849718746779e-01 0 0
4.640000000000e+11 0 0 5.0000000000000000e-01 -9.9036901854137233e-18 5.0000000000000000e-01 -9.9036901854137233e-18 0 0
4.641000000000e+11 0 0 4.7552825814757871e-01 -1.5450849718746781e-01 4.7552825814757871e-01 -1.5450849718746781e-01 0 0
4.642000000000e+11 0 0 4.0450849718741422e-01 -2.9389262614631850e-01 4.0450849718741422e-01 -2.9389262614631850e-01 0 0
4.643000000000e+11 0 0 2.9389262614625167e-01 -4.0450849718746273e-01 2.9389262614625167e-01 -4.0450849718746273e-01 0 0
4.644000000000e+11 0 0 1.5450849718749737e-01 -4.7552825814756911e-01 1.5450849718749737e-01 -4.7552825814756911e-01 0 0
4.645000000000e+11 0 0 -8.2579880552318372e-14 -5.0000000000000000e-01 -8.2579880552318372e-14 -5.0000000000000000e-01 0 0
4.646000000000e+11 0 0 -1.5450849718743820e-01 -4.7552825814758831e-01 -1.5450849718743820e-01 -4.7552825814758831e-01 0 0
4.647000000000e+11 0 0 -2.9389262614620132e-01 -4.0450849718749932e-01 -2.9389262614620132e-01 -4.0450849718749932e-01 0 0
4.648000000000e+11 0 0 -4.0450849718751125e-01 -2.9389262614618483e-01 -4.0450849718751125e-01 -2.9389262614618483e-01 0 0
4.649000000000e+11 0 0 -4.7552825814755950e-01 -1.5450849718752696e-01 -4.7552825814755950e-01 -1.5450849718752696e-01 0 0
4.650000000000e+11 0 0 -5.0000000000000000e-01 5.1463019692835311e-14 -5.0000000000000000e-01 5.1463019692835311e-14 0 0
4.651000000000e+11 0 0 -4.7552825814756283e-01 1.5450849718751675e-01 -4.7552825814756283e-01 1.5450849718751675e-01 0 0
4.652000000000e+11 0 0 -4.0450849718751758e-01 2.9389262614617617e-01 -4.0450849718751758e-01 2.9389262614617617e-01 0 0
4.653000000000e+11 0 0 -2.9389262614621003e-01 4.0450849718749299e-01 -2.9389262614621003e-01 4.0450849718749299e-01 0 0
4.654000000000e+11 0 0 -1.5450849718744844e-01 4.7552825814758498e-01 -1.5450849718744844e-01 4.7552825814758498e-01 0 0
4.655000000000e+11 0 0 -9.3340678888263792e-14 5.0000000000000000e-01 -9.3340678888263792e-14 5.0000000000000000e-01 0 0
4.656000000000e+11 0 0 1.5450849718748713e-01 4.7552825814757244e-01 1.5450849718748713e-01 4.7552825814757244e-01 0 0
4.657000000000e+11 0 0 2.9389262614624295e-01 4.0450849718746906e-01 2.9389262614624295e-01 4.0450849718746906e-01 0 0
4.658000000000e+11 0 0 4.0450849718754150e-01 2.9389262614614325e-01 4.0450849718754150e-01 2.9389262614614325e-01 0 0
4.659000000000e+11 0 0 4.7552825814757538e-01 1.5450849718747803e-01 4.7552825814757538e-01 1.5450849718747803e-01 0 0
4.660000000000e+11 0 0 5.0000000000000000e-01 1.0770702026130824e-14 5.0000000000000000e-01 1.0770702026130824e-14 0 0
4.661000000000e+11 0 0 4.7552825814754690e-01 -1.5450849718756568e-01 4.7552825814754690e-01 -1.5450849718756568e-01 0 0
4.662000000000e+11 0 0 4.0450849718748738e-01 -2.9389262614621781e-01 4.0450849718748738e-01 -2.9389262614621781e-01 0 0
4.663000000000e+11 0 0 2.9389262614626038e-01 -4.0450849718745641e-01 2.9389262614626038e-01 -4.0450849718745641e-01 0 0
4.664000000000e+11 0 0 1.5450849718739951e-01 -4.7552825814760091e-01 1.5450849718739951e-01 -4.7552825814760091e-01 0 0
4.665000000000e+11 0 0 4.1887562885613890e-14 -5.0000000000000000e-01 4.1887562885613890e-14 -5.0000000000000000e-01 0 0
4.666000000000e+11 0 0 -1.5450849718753606e-01 -4.7552825814755650e-01 -1.5450849718753606e-01 -4.7552825814755650e-01 0 0
4.667000000000e+11 0 0 -2.9389262614628459e-01 -4.0450849718743881e-01 -2.9389262614628459e-01 -4.0450849718743881e-01 0 0
4.668000000000e+11 0 0 -4.0450849718743814e-01 -2.9389262614628553e-01 -4.0450849718743814e-01 -2.9389262614628553e-01 0 0
4.669000000000e+11 0 0 -4.7552825814759125e-01 -1.5450849718742909e-01 -4.7552825814759125e-01 -1.5450849718742909e-01 0 0
4.670000000000e+11 0 0 -5.0000000000000000e-01 4.0682413976519073e-14 -5.0000000000000000e-01 4.0682413976519073e-14 0 0
4.671000000000e+11 0 0 -4.7552825814756616e-01 1.5450849718750648e-01 -4.7552825814756616e-01 1.5450849718750648e-01 0 0
4.672000000000e+11 0 0 -4.0450849718745713e-01 2.9389262614625938e-01 -4.0450849718745713e-01 2.9389262614625938e-01 0 0
4.673000000000e+11 0 0 -2.9389262614621875e-01 4.0450849718748666e-01 -2.9389262614621875e-01 4.0450849718748666e-01 0 0
4.674000000000e+11 0 0 -1.5450849718745868e-01 4.7552825814758165e-01 -1.5450849718745868e-01 4.7552825814758165e-01 0 0
4.675000000000e+11 0 0 9.5655531170360047e-15 5.0000000000000000e-01 9.5655531170360047e-15 5.0000000000000000e-01 0 0
4.676000000000e+11 0 0 1.5450849718747689e-01 4.7552825814757577e-01 1.5450849718747689e-01 4.7552825814757577e-01 0 0
4.677000000000e+11 0 0 2.9389262614623424e-01 4.0450849718747539e-01 2.9389262614623424e-01 4.0450849718747539e-01 0 0
4.678000000000e+11 0 0 4.0450849718746834e-01 2.9389262614624395e-01 4.0450849718746834e-01 2.9389262614624395e-01 0 0
4.679000000000e+11 0 0 4.7552825814760719e-01 1.5450849718738016e-01 4.7552825814760719e-01 1.5450849718738016e-01 0 0
4.680000000000e+11 0 0 5.0000000000000000e-01 2.1551307742447064e-14 5.0000000000000000e-01 2.1551307742447064e-14 0 0
4.681000000000e+11 0 0 4.7552825814758537e-01 -1.5450849718744730e-01 4.7552825814758537e-01 -1.5450849718744730e-01 0 0
4.682000000000e+11 0 0 4.0450849718742687e-01 -2.9389262614630102e-01 4.0450849718742687e-01 -2.9389262614630102e-01 0 0
4.683000000000e+11 0 0 2.9389262614626910e-01 -4.0450849718745008e-01 2.9389262614626910e-01 -4.0450849718745008e-01 0 0
4.684000000000e+11 0 0 1.5450849718751788e-01 -4.7552825814756244e-01 1.5450849718751788e-01 -4.7552825814756244e-01 0 0
4.685000000000e+11 0 0 -6.1018669119685896e-14 -5.0000000000000000e-01 -6.1018669119685896e-14 -5.0000000000000000e-01 0 0
4.686000000000e+11 0 0 -1.5450849718741771e-01 -4.7552825814759497e-01 -1.5450849718741771e-01 -4.7552825814759497e-01 0 0
4.687000000000e+11 0 0 -2.9389262614627587e-01 -4.0450849718744519e-01 -2.9389262614627587e-01 -4.0450849718744519e-01 0 0
4.688000000000e+11 0 0 -4.0450849718749859e-01 -2.9389262614620232e-01 -4.0450849718749859e-01 -2.9389262614620232e-01 0 0
4.689000000000e+11 0 0 -4.7552825814755284e-01 -1.5450849718754747e-01 -4.7552825814755284e-01 -1.5450849718754747e-01 0 0
4.690000000000e+11 0 0 -5.0000000000000000e-01 2.9901808260202835e-14 -5.0000000000000000e-01 2.9901808260202835e-14 0 0
4.691000000000e+11 0 0 -4.7552825814756949e-01 1.5450849718749624e-01 -4.7552825814756949e-01 1.5450849718749624e-01 0 0
4.692000000000e+11 0 0 -4.0450849718753029e-01 2.9389262614615869e-01 -4.0450849718753029e-01 2.9389262614615869e-01 0 0
4.693000000000e+11 0 0 -2.9389262614622746e-01 4.0450849718748033e-01 -2.9389262614622746e-01 4.0450849718748033e-01 0 0
4.694000000000e+11 0 0 -1.5450849718746895e-01 4.7552825814757832e-01 -1.5450849718746895e-01 4.7552825814757832e-01 0 0
4.695000000000e+11 0 0 1.1247178512233579e-13 5.0000000000000000e-01 1.1247178512233579e-13 5.0000000000000000e-01 0 0
4.696000000000e+11 0 0 1.5450849718746665e-01 4.7552825814757910e-01 1.5450849718746665e-01 4.7552825814757910e-01 0 0
4.697000000000e+11 0 0 2.9389262614622552e-01 4.0450849718748172e-01 2.9389262614622552e-01 4.0450849718748172e-01 0 0
4.698000000000e+11 0 0 4.0450849718752885e-01 2.9389262614616068e-01 4.0450849718752885e-01 2.9389262614616068e-01 0 0
4.699000000000e+11 0 0 4.7552825814756872e-01 1.5450849718749854e-01 4.7552825814756872e-01 1.5450849718749854e-01 0 0
4.700000000000e+11 0 0 5.0000000000000000e-01 -8.1354924262852731e-14 5.0000000000000000e-01 -8.1354924262852731e-14 0 0
4.701000000000e+11 0 0 4.7552825814755356e-01 -1.5450849718754517e-01 4.7552825814755356e-01 -1.5450849718754517e-01 0 0
4.702000000000e+11 0 0 4.0450849718750004e-01 -2.9389262614620032e-01 4.0450849718750004e-01 -2.9389262614620032e-01 0 0
4.703000000000e+11 0 0 2.9389262614618583e-01 -4.0450849718751053e-01 2.9389262614618583e-01 -4.0450849718751053e-01 0 0
4.704000000000e+11 0 0 1.5450849718742002e-01 -4.7552825814759425e-01 1.5450849718742002e-01 -4.7552825814759425e-01 0 0
4.705000000000e+11 0 0 6.3448774318246372e-14 -5.0000000000000000e-01 6.3448774318246372e-14 -5.0000000000000000e-01 0 0
4.706000000000e+11 0 0 -1.5450849718751558e-01 -4.7552825814756317e-01 -1.5450849718751558e-01 -4.7552825814756317e-01 0 0
4.707000000000e+11 0 0 -2.9389262614626716e-01 -4.0450849718745152e-01 -2.9389262614626716e-01 -4.0450849718745152e-01 0 0
4.708000000000e+11 0 0 -4.0450849718749227e-01 -2.9389262614621103e-01 -4.0450849718749227e-01 -2.9389262614621103e-01 0 0
4.709000000000e+11 0 0 -4.7552825814758459e-01 -1.5450849718744961e-01 -4.7552825814758459e-01 -1.5450849718744961e-01 0 0
4.710000000000e+11 0 0 -5.0000000000000000e-01 1.9121202543886594e-14 -5.0000000000000000e-01 1.9121202543886594e-14 0 0
4.711000000000e+11 0 0 -4.7552825814757282e-01 1.5450849718748597e-01 -4.7552825814757282e-01 1.5450849718748597e-01 0 0
4.712000000000e+11 0 0 -4.0450849718746978e-01 2.9389262614624195e-01 -4.0450849718746978e-01 2.9389262614624195e-01 0 0
4.713000000000e+11 0 0 -2.9389262614623618e-01 4.0450849718747400e-01 -2.9389262614623618e-01 4.0450849718747400e-01 0 0
4.714000000000e+11 0 0 -1.5450849718747919e-01 4.7552825814757499e-01 -1.5450849718747919e-01 4.7552825814757499e-01 0 0
4.715000000000e+11 0 0 -1.1995658315596471e-14 5.0000000000000000e-01 -1.1995658315596471e-14 5.0000000000000000e-01 0 0
4.716000000000e+11 0 0 1.5450849718756451e-01 4.7552825814754729e-01 1.5450849718756451e-01 4.7552825814754729e-01 0 0
4.717000000000e+11 0 0 2.9389262614621681e-01 4.0450849718748810e-01 2.9389262614621681e-01 4.0450849718748810e-01 0 0
4.718000000000e+11 0 0 4.0450849718745568e-01 2.9389262614626138e-01 4.0450849718745568e-01 2.9389262614626138e-01 0 0
4.719000000000e+11 0 0 4.7552825814760052e-01 1.5450849718740067e-01 4.7552825814760052e-01 1.5450849718740067e-01 0 0
4.720000000000e+11 0 0 5.0000000000000000e-01 4.3112519175079537e-14 5.0000000000000000e-01 4.3112519175079537e-14 0 0
4.721000000000e+11 0 0 4.7552825814759203e-01 -1.5450849718742679e-01 4.7552825814759203e-01 -1.5450849718742679e-01 0 0
4.722000000000e+11 0 0 4.0450849718743953e-01 -2.9389262614628359e-01 4.0450849718743953e-01 -2.9389262614628359e-01 0 0
4.723000000000e+11 0 0 2.9389262614628653e-01 -4.0450849718743737e-01 2.9389262614628653e-01 -4.0450849718743737e-01 0 0
4.724000000000e+11 0 0 1.5450849718743026e-01 -4.7552825814759092e-01 1.5450849718743026e-01 -4.7552825814759092e-01 0 0
4.725000000000e+11 0 0 -3.9457457687053426e-14 -5.0000000000000000e-01 -3.9457457687053426e-14 -5.0000000000000000e-01 0 0
4.726000000000e+11 0 0 -1.5450849718739720e-01 -4.7552825814760163e-01 -1.5450849718739720e-01 -4.7552825814760163e-01 0 0
4.727000000000e+11 0 0 -2.9389262614625844e-01 -4.0450849718745785e-01 -2.9389262614625844e-01 -4.0450849718745785e-01 0 0
4.728000000000e+11 0 0 -4.0450849718748594e-01 -2.9389262614621975e-01 -4.0450849718748594e-01 -2.9389262614621975e-01 0 0
4.729000000000e+11 0 0 -4.7552825814761640e-01 -1.5450849718735174e-01 -4.7552825814761640e-01 -1.5450849718735174e-01 0 0
4.730000000000e+11 0 0 -5.0000000000000000e-01 8.3405968275703578e-15 -5.0000000000000000e-01 8.3405968275703578e-15 0 0
4.731000000000e+11 0 0 -4.7552825814757615e-01 1.5450849718747572e-01 -4.7552825814757615e-01 1.5450849718747572e-01 0 0
4.732000000000e+11 0 0 -4.0450849718740928e-01 2.9389262614632522e-01 -4.0450849718740928e-01 2.9389262614632522e-01 0 0
4.733000000000e+11 0 0 -2.9389262614624490e-01 4.0450849718746762e-01 -2.9389262614624490e-01 4.0450849718746762e-01 0 0
4.734000000000e+11 0 0 -1.5450849718748946e-01 4.7552825814757166e-01 -1.5450849718748946e-01 4.7552825814757166e-01 0 0
4.735000000000e+11 0 0 9.0910573689703316e-14 5.0000000000000000e-01 9.0910573689703316e-14 5.0000000000000000e-01 0 0
4.736000000000e+11 0 0 1.5450849718744614e-01 4.7552825814758576e-01 1.5450849718744614e-01 4.7552825814758576e-01 0 0
4.737000000000e+11 0 0 2.9389262614630002e-01 4.0450849718742760e-01 2.9389262614630002e-01 4.0450849718742760e-01 0 0
4.738000000000e+11 0 0 4.0450849718751619e-01 2.9389262614617812e-01 4.0450849718751619e-01 2.9389262614617812e-01 0 0
4.739000000000e+11 0 0 4.7552825814756206e-01 1.5450849718751905e-01 4.7552825814756206e-01 1.5450849718751905e-01 0 0
4.740000000000e+11 0 0 5.0000000000000000e-01 -5.9793712830220255e-14 5.0000000000000000e-01 -5.9793712830220255e-14 0 0
4.741000000000e+11 0 0 4.7552825814756022e-01 -1.5450849718752466e-01 4.7552825814756022e-01 -1.5450849718752466e-01 0 0
4.742000000000e+11 0 0 4.0450849718751269e-01 -2.9389262614618289e-01 4.0450849718751269e-01 -2.9389262614618289e-01 0 0
4.743000000000e+11 0 0 2.9389262614620332e-01 -4.0450849718749787e-01 2.9389262614620332e-01 -4.0450849718749787e-01 0 0
4.744000000000e+11 0 0 1.5450849718744053e-01 -4.7552825814758759e-01 1.5450849718744053e-01 -4.7552825814758759e-01 0 0
4.745000000000e+11 0 0 -2.8676851970737188e-14 -5.0000000000000000e-01 -2.8676851970737188e-14 -5.0000000000000000e-01 0 0
4.746000000000e+11 0 0 -1.5450849718749507e-01 -4.7552825814756983e-01 -1.5450849718749507e-01 -4.7552825814756983e-01 0 0
4.747000000000e+11 0 0 -2.9389262614624967e-01 -4.0450849718746418e-01 -2.9389262614624967e-01 -4.0450849718746418e-01 0 0
4.748000000000e+11 0 0 -4.0450849718747961e-01 -2.9389262614622846e-01 -4.0450849718747961e-01 -2.9389262614622846e-01 0 0
4.749000000000e+11 0 0 -4.7552825814757793e-01 -1.5450849718747012e-01 -4.7552825814757793e-01 -1.5450849718747012e-01 0 0
4.750000000000e+11 0 0 -5.0000000000000000e-01 -2.4400088887458809e-15 -5.0000000000000000e-01 -2.4400088887458809e-15 0 0
4.751000000000e+11 0 0 -4.7552825814757949e-01 1.5450849718746548e-01 -4.7552825814757949e-01 1.5450849718746548e-01 0 0
4.752000000000e+11 0 0 -4.0450849718748244e-01 2.9389262614622452e-01 -4.0450849718748244e-01 2.9389262614622452e-01 0 0
4.753000000000e+11 0 0 -2.9389262614616168e-01 4.0450849718752813e-01 -2.9389262614616168e-01 4.0450849718752813e-01 0 0
4.754000000000e+11 0 0 -1.5450849718749970e-01 4.7552825814756833e-01 -1.5450849718749970e-01 4.7552825814756833e-01 0 0
4.755000000000e+11 0 0 -3.3556869748228946e-14 5.0000000000000000e-01 -3.3556869748228946e-14 5.0000000000000000e-01 0 0
4.756000000000e+11 0 0 1.5450849718754400e-01 4.7552825814755395e-01 1.5450849718754400e-01 4.7552825814755395e-01 0 0
4.757000000000e+11 0 0 2.9389262614619932e-01 4.0450849718750076e-01 2.9389262614619932e-01 4.0450849718750076e-01 0 0
4.758000000000e+11 0 0 4.0450849718750986e-01 2.9389262614618683e-01 4.0450849718750986e-01 2.9389262614618683e-01 0 0
4.759000000000e+11 0 0 4.7552825814759386e-01 1.5450849718742118e-01 4.7552825814759386e-01 1.5450849718742118e-01 0 0
4.760000000000e+11 0 0 5.0000000000000000e-01 6.4673730607712012e-14 5.0000000000000000e-01 6.4673730607712012e-14 0 0
4.761000000000e+11 0 0 4.7552825814756355e-01 -1.5450849718751442e-01 4.7552825814756355e-01 -1.5450849718751442e-01 0 0
4.762000000000e+11 0 0 4.0450849718745219e-01 -2.9389262614626616e-01 4.0450849718745219e-01 -2.9389262614626616e-01 0 0
4.763000000000e+11 0 0 2.9389262614630401e-01 -4.0450849718742471e-01 2.9389262614630401e-01 -4.0450849718742471e-01 0 0
4.764000000000e+11 0 0 1.5450849718745077e-01 -4.7552825814758426e-01 1.5450849718745077e-01 -4.7552825814758426e-01 0 0
4.765000000000e+11 0 0 -1.7896246254420947e-14 -5.0000000000000000e-01 -1.7896246254420947e-14 -5.0000000000000000e-01 0 0
4.766000000000e+11 0 0 -1.5450849718759294e-01 -4.7552825814753807e-01 -1.5450849718759294e-01 -4.7552825814753807e-01 0 0
4.767000000000e+11 0 0 -2.9389262614624095e-01 -4.0450849718747051e-01 -2.9389262614624095e-01 -4.0450849718747051e-01 0 0
4.768000000000e+11 0 0 -4.0450849718747328e-01 -2.9389262614623718e-01 -4.0450849718747328e-01 -2.9389262614623718e-01 0 0
4.769000000000e+11 0 0 -4.7552825814760974e-01 -1.5450849718737225e-01 -4.7552825814760974e-01 -1.5450849718737225e-01 0 0
4.770000000000e+11 0 0 -5.0000000000000000e-01 -1.3220614605062120e-14 -5.0000000000000000e-01 -1.3220614605062120e-14 0 0
4.771000000000e+11 0 0 -4.7552825814758282e-01 1.5450849718745521e-01 -4.7552825814758282e-01 1.5450849718745521e-01 0 0
4.772000000000e+11 0 0 -4.0450849718742199e-01 2.9389262614630779e-01 -4.0450849718742199e-01 2.9389262614630779e-01 0 0
4.773000000000e+11 0 0 -2.9389262614626238e-01 4.0450849718745496e-01 -2.9389262614626238e-01 4.0450849718745496e-01 0 0
4.774000000000e+11 0 0 -1.5450849718740184e-01 4.7552825814760014e-01 -1.5450849718740184e-01 4.7552825814760014e-01 0 0
4.775000000000e+11 0 0 6.9349362257070840e-14 5.0000000000000000e-01 6.9349362257070840e-14 5.0000000000000000e-01 0 0
4.776000000000e+11 0 0 1.5450849718742563e-01 4.7552825814759242e-01 1.5450849718742563e-01 4.7552825814759242e-01 0 0
4.777000000000e+11 0 0 2.9389262614628259e-01 4.0450849718744025e-01 2.9389262614628259e-01 4.0450849718744025e-01 0 0
4.778000000000e+11 0 0 4.0450849718750348e-01 2.9389262614619555e-01 4.0450849718750348e-01 2.9389262614619555e-01 0 0
4.779000000000e+11 0 0 4.7552825814755539e-01 1.5450849718753956e-01 4.7552825814755539e-01 1.5450849718753956e-01 0 0
4.780000000000e+11 0 0 5.0000000000000000e-01 -3.8232501397587779e-14 5.0000000000000000e-01 -3.8232501397587779e-14 0 0
4.781000000000e+11 0 0 4.7552825814756688e-01 -1.5450849718750415e-01 4.7552825814756688e-01 -1.5450849718750415e-01 0 0
4.782000000000e+11 0 0 4.0450849718745857e-01 -2.9389262614625744e-01 4.0450849718745857e-01 -2.9389262614625744e-01 0 0
4.783000000000e+11 0 0 2.9389262614622075e-01 -4.0450849718748522e-01 2.9389262614622075e-01 -4.0450849718748522e-01 0 0
4.784000000000e+11 0 0 1.5450849718746101e-01 -4.7552825814758093e-01 1.5450849718746101e-01 -4.7552825814758093e-01 0 0
4.785000000000e+11 0 0 -7.1156405381047093e-15 -5.0000000000000000e-01 -7.1156405381047093e-15 -5.0000000000000000e-01 0 0
4.786000000000e+11 0 0 -1.5450849718747456e-01 -4.7552825814757649e-01 -1.5450849718747456e-01 -4.7552825814757649e-01 0 0
4.787000000000e+11 0 0 -2.9389262614632422e-01 -4.0450849718741000e-01 -2.9389262614632422e-01 -4.0450849718741000e-01 0 0
4.788000000000e+11 0 0 -4.0450849718746690e-01 -2.9389262614624589e-01 -4.0450849718746690e-01 -2.9389262614624589e-01 0 0
4.789000000000e+11 0 0 -4.7552825814757127e-01 -1.5450849718749063e-01 -4.7552825814757127e-01 -1.5450849718749063e-01 0 0
4.790000000000e+11 0 0 -5.0000000000000000e-01 8.9685617400237675e-14 -5.0000000000000000e-01 8.9685617400237675e-14 0 0
4.791000000000e+11 0 0 -4.7552825814758615e-01 1.5450849718744497e-01 -4.7552825814758615e-01 1.5450849718744497e-01 0 0
4.792000000000e+11 0 0 -4.0450849718749515e-01 2.9389262614620709e-01 -4.0450849718749515e-01 2.9389262614620709e-01 0 0
4.793000000000e+11 0 0 -2.9389262614617911e-01 4.0450849718751547e-01 -2.9389262614617911e-01 4.0450849718751547e-01 0 0
4.794000000000e+11 0 0 -1.5450849718752022e-01 4.7552825814756167e-01 -1.5450849718752022e-01 4.7552825814756167e-01 0 0
4.795000000000e+11 0 0 5.8568756540754602e-14 5.0000000000000000e-01 5.8568756540754602e-14 5.0000000000000000e-01 0 0
4.796000000000e+11 0 0 1.5450849718752349e-01 4.7552825814756061e-01 1.5450849718752349e-01 4.7552825814756061e-01 0 0
4.797000000000e+11 0 0 2.9389262614618189e-01 4.0450849718751342e-01 2.9389262614618189e-01 4.0450849718751342e-01 0 0
4.798000000000e+11 0 0 4.0450849718749715e-01 2.9389262614620426e-01 4.0450849718749715e-01 2.9389262614620426e-01 0 0
4.799000000000e+11 0 0 4.7552825814758720e-01 1.5450849718744170e-01 4.7552825814758720e-01 1.5450849718744170e-01 0 0
4.800000000000e+11 0 0 5.0000000000000000e-01 8.6234942040344488e-14 5.0000000000000000e-01 8.6234942040344488e-14 0 0
4.801000000000e+11 0 0 4.7552825814757022e-01 -1.5450849718749390e-01 4.7552825814757022e-01 -1.5450849718749390e-01 0 0
4.802000000000e+11 0 0 4.0450849718746490e-01 -2.9389262614624873e-01 4.0450849718746490e-01 -2.9389262614624873e-01 0 0
4.803000000000e+11 0 0 2.9389262614613748e-01 -4.0450849718754572e-01 2.9389262614613748e-01 -4.0450849718754572e-01 0 0
4.804000000000e+11 0 0 1.5450849718747128e-01 -4.7552825814757760e-01 1.5450849718747128e-01 -4.7552825814757760e-01 0 0
4.805000000000e+11 0 0 3.6649651782115286e-15 -5.0000000000000000e-01 3.6649651782115286e-15 -5.0000000000000000e-01 0 0
4.806000000000e+11 0 0 -1.5450849718757242e-01 -4.7552825814754474e-01 -1.5450849718757242e-01 -4.7552825814754474e-01 0 0
4.807000000000e+11 0 0 -2.9389262614622352e-01 -4.0450849718748316e-01 -2.9389262614622352e-01 -4.0450849718748316e-01 0 0
4.808000000000e+11 0 0 -4.0450849718746057e-01 -2.9389262614625461e-01 -4.0450849718746057e-01 -2.9389262614625461e-01 0 0
4.809000000000e+11 0 0 -4.7552825814760308e-01 -1.5450849718739276e-01 -4.7552825814760308e-01 -1.5450849718739276e-01 0 0
4.810000000000e+11 0 0 -5.0000000000000000e-01 -3.4781826037694592e-14 -5.0000000000000000e-01 -3.4781826037694592e-14 0 0
4.811000000000e+11 0 0 -4.7552825814755434e-01 1.5450849718754284e-01 -4.7552825814755434e-01 1.5450849718754284e-01 0 0
4.812000000000e+11 0 0 -4.0450849718743465e-01 2.9389262614629030e-01 -4.0450849718743465e-01 2.9389262614629030e-01 0 0
4.813000000000e+11 0 0 -2.9389262614627981e-01 4.0450849718744231e-01 -2.9389262614627981e-01 4.0450849718744231e-01 0 0
4.814000000000e+11 0 0 -1.5450849718742235e-01 4.7552825814759347e-01 -1.5450849718742235e-01 4.7552825814759347e-01 0 0
4.815000000000e+11 0 0 4.7788150824438370e-14 5.0000000000000000e-01 4.7788150824438370e-14 5.0000000000000000e-01 0 0
4.816000000000e+11 0 0 1.5450849718751325e-01 4.7552825814756394e-01 1.5450849718751325e-01 4.7552825814756394e-01 0 0
4.817000000000e+11 0 0 2.9389262614626516e-01 4.0450849718745296e-01 2.9389262614626516e-01 4.0450849718745296e-01 0 0
4.818000000000e+11 0 0 4.0450849718749082e-01 2.9389262614621303e-01 4.0450849718749082e-01 2.9389262614621303e-01 0 0
4.819000000000e+11 0 0 4.7552825814758387e-01 1.5450849718745194e-01 4.7552825814758387e-01 1.5450849718745194e-01 0 0
4.820000000000e+11 0 0 5.0000000000000000e-01 -1.6671289964955300e-14 5.0000000000000000e-01 -1.6671289964955300e-14 0 0
4.821000000000e+11 0 0 4.7552825814757355e-01 -1.5450849718748366e-01 4.7552825814757355e-01 -1.5450849718748366e-01 0 0
4.822000000000e+11 0 0 4.0450849718747123e-01 -2.9389262614624001e-01 4.0450849718747123e-01 -2.9389262614624001e-01 0 0
4.823000000000e+11 0 0 2.9389262614623818e-01 -4.0450849718747256e-01 2.9389262614623818e-01 -4.0450849718747256e-01 0 0
4.824000000000e+11 0 0 1.5450849718737342e-01 -4.7552825814760935e-01 1.5450849718737342e-01 -4.7552825814760935e-01 0 0
4.825000000000e+11 0 0 1.4445570894527767e-14 -5.0000000000000000e-01 1.4445570894527767e-14 -5.0000000000000000e-01 0 0
4.826000000000e+11 0 0 -1.5450849718745405e-01 -4.7552825814758315e-01 -1.5450849718745405e-01 -4.7552825814758315e-01 0 0
4.827000000000e+11 0 0 -2.9389262614630679e-01 -4.0450849718742271e-01 -2.9389262614630679e-01 -4.0450849718742271e-01 0 0
4.828000000000e+11 0 0 -4.0450849718745424e-01 -2.9389262614626332e-01 -4.0450849718745424e-01 -2.9389262614626332e-01 0 0
4.829000000000e+11 0 0 -4.7552825814756461e-01 -1.5450849718751111e-01 -4.7552825814756461e-01 -1.5450849718751111e-01 0 0
4.830000000000e+11 0 0 -5.0000000000000000e-01 6.8124405967605199e-14 -5.0000000000000000e-01 6.8124405967605199e-14 0 0
4.831000000000e+11 0 0 -4.7552825814759281e-01 1.5450849718742446e-01 -4.7552825814759281e-01 1.5450849718742446e-01 0 0
4.832000000000e+11 0 0 -4.0450849718744097e-01 2.9389262614628159e-01 -4.0450849718744097e-01 2.9389262614628159e-01 0 0
4.833000000000e+11 0 0 -2.9389262614619655e-01 4.0450849718750276e-01 -2.9389262614619655e-01 4.0450849718750276e-01 0 0
4.834000000000e+11 0 0 -1.5450849718754073e-01 4.7552825814755501e-01 -1.5450849718754073e-01 4.7552825814755501e-01 0 0
4.835000000000e+11 0 0 3.7007545108122132e-14 5.0000000000000000e-01 3.7007545108122132e-14 5.0000000000000000e-01 0 0
4.836000000000e+11 0 0 1.5450849718750298e-01 4.7552825814756727e-01 1.5450849718750298e-01 4.7552825814756727e-01 0 0
4.837000000000e+11 0 0 2.9389262614616446e-01 4.0450849718752613e-01 2.9389262614616446e-01 4.0450849718752613e-01 0 0
4.838000000000e+11 0 0 4.0450849718748449e-01 2.9389262614622175e-01 4.0450849718748449e-01 2.9389262614622175e-01 0 0
4.839000000000e+11 0 0 4.7552825814758054e-01 1.5450849718746218e-01 4.7552825814758054e-01 1.5450849718746218e-01 0 0
4.840000000000e+11 0 0 5.0000000000000000e-01 -1.1957752197025508e-13 5.0000000000000000e-01 -1.1957752197025508e-13 0 0
4.841000000000e+11 0 0 4.7552825814757688e-01 -1.5450849718747339e-01 4.7552825814757688e-01 -1.5450849718747339e-01 0 0
4.842000000000e+11 0 0 4.0450849718747756e-01 -2.9389262614623124e-01 4.0450849718747756e-01 -2.9389262614623124e-01 0 0
4.843000000000e+11 0 0 2.9389262614615491e-01 -4.0450849718753301e-01 2.9389262614615491e-01 -4.0450849718753301e-01 0 0
4.844000000000e+11 0 0 1.5450849718749179e-01 -4.7552825814757094e-01 1.5450849718749179e-01 -4.7552825814757094e-01 0 0
4.845000000000e+11 0 0 -8.8460661110772022e-14 -5.0000000000000000e-01 -8.8460661110772022e-14 -5.0000000000000000e-01 0 0
4.846000000000e+11 0 0 -1.5450849718755191e-01 -4.7552825814755140e-01 -1.5450849718755191e-01 -4.7552825814755140e-01 0 0
4.847000000000e+11 0 0 -2.9389262614620609e-01 -4.0450849718749587e-01 -2.9389262614620609e-01 -4.0450849718749587e-01 0 0
4.848000000000e+11 0 0 -4.0450849718751475e-01 -2.9389262614618011e-01 -4.0450849718751475e-01 -2.9389262614618011e-01 0 0
4.849000000000e+11 0 0 -4.7552825814759642e-01 -1.5450849718741325e-01 -4.7552825814759642e-01 -1.5450849718741325e-01 0 0
4.850000000000e+11 0 0 -5.0000000000000000e-01 -5.6343037470327075e-14 -5.0000000000000000e-01 -5.6343037470327075e-14 0 0
4.851000000000e+11 0 0 -4.7552825814756100e-01 1.5450849718752233e-01 -4.7552825814756100e-01 1.5450849718752233e-01 0 0
4.852000000000e+11 0 0 -4.0450849718744730e-01 2.9389262614627287e-01 -4.0450849718744730e-01 2.9389262614627287e-01 0 0
4.853000000000e+11 0 0 -2.9389262614620526e-01 4.0450849718749643e-01 -2.9389262614620526e-01 4.0450849718749643e-01 0 0
4.854000000000e+11 0 0 -1.5450849718744286e-01 4.7552825814758681e-01 -1.5450849718744286e-01 4.7552825814758681e-01 0 0
4.855000000000e+11 0 0 2.6226939391805891e-14 5.0000000000000000e-01 2.6226939391805891e-14 5.0000000000000000e-01 0 0
4.856000000000e+11 0 0 1.5450849718749274e-01 4.7552825814757060e-01 1.5450849718749274e-01 4.7552825814757060e-01 0 0
4.857000000000e+11 0 0 2.9389262614624773e-01 4.0450849718746562e-01 2.9389262614624773e-01 4.0450849718746562e-01 0 0
4.858000000000e+11 0 0 4.0450849718747817e-01 2.9389262614623046e-01 4.0450849718747817e-01 2.9389262614623046e-01 0 0
4.859000000000e+11 0 0 4.7552825814757721e-01 1.5450849718747245e-01 4.7552825814757721e-01 1.5450849718747245e-01 0 0
4.860000000000e+11 0 0 5.0000000000000000e-01 4.8899214676771755e-15 5.0000000000000000e-01 4.8899214676771755e-15 0 0
4.861000000000e+11 0 0 4.7552825814754507e-01 -1.5450849718757126e-01 4.7552825814754507e-01 -1.5450849718757126e-01 0 0
4.862000000000e+11 0 0 4.0450849718748388e-01 -2.9389262614622252e-01 4.0450849718748388e-01 -2.9389262614622252e-01 0 0
4.863000000000e+11 0 0 2.9389262614625561e-01 -4.0450849718745985e-01 2.9389262614625561e-01 -4.0450849718745985e-01 0 0
4.864000000000e+11 0 0 1.5450849718739393e-01 -4.7552825814760269e-01 1.5450849718739393e-01 -4.7552825814760269e-01 0 0
4.865000000000e+11 0 0 3.6006782327160246e-14 -5.0000000000000000e-01 3.6006782327160246e-14 -5.0000000000000000e-01 0 0
4.866000000000e+11 0 0 -1.5450849718743354e-01 -4.7552825814758981e-01 -1.5450849718743354e-01 -4.7552825814758981e-01 0 0
4.867000000000e+11 0 0 -2.9389262614628936e-01 -4.0450849718743537e-01 -2.9389262614628936e-01 -4.0450849718743537e-01 0 0
4.868000000000e+11 0 0 -4.0450849718744158e-01 -2.9389262614628081e-01 -4.0450849718744158e-01 -2.9389262614628081e-01 0 0
4.869000000000e+11 0 0 -4.7552825814759309e-01 -1.5450849718742352e-01 -4.7552825814759309e-01 -1.5450849718742352e-01 0 0
4.870000000000e+11 0 0 -5.0000000000000000e-01 4.6563194534972717e-14 -5.0000000000000000e-01 4.6563194534972717e-14 0 0
4.871000000000e+11 0 0 -4.7552825814759947e-01 1.5450849718740395e-01 -4.7552825814759947e-01 1.5450849718740395e-01 0 0
4.872000000000e+11 0 0 -4.0450849718745369e-01 2.9389262614626416e-01 -4.0450849718745369e-01 2.9389262614626416e-01 0 0
4.873000000000e+11 0 0 -2.9389262614621398e-01 4.0450849718749010e-01 -2.9389262614621398e-01 4.0450849718749010e-01 0 0
4.874000000000e+11 0 0 -1.5450849718745310e-01 4.7552825814758348e-01 -1.5450849718745310e-01 4.7552825814758348e-01 0 0
4.875000000000e+11 0 0 1.5446333675489653e-14 5.0000000000000000e-01 1.5446333675489653e-14 5.0000000000000000e-01 0 0
4.876000000000e+11 0 0 1.5450849718748250e-01 4.7552825814757393e-01 1.5450849718748250e-01 4.7552825814757393e-01 0 0
4.877000000000e+11 0 0 2.9389262614633094e-01 4.0450849718740511e-01 2.9389262614633094e-01 4.0450849718740511e-01 0 0
4.878000000000e+11 0 0 4.0450849718747184e-01 2.9389262614623918e-01 4.0450849718747184e-01 2.9389262614623918e-01 0 0
4.879000000000e+11 0 0 4.7552825814757388e-01 1.5450849718748269e-01 4.7552825814757388e-01 1.5450849718748269e-01 0 0
4.880000000000e+11 0 0 5.0000000000000000e-01 -9.8016310537622619e-14 5.0000000000000000e-01 -9.8016310537622619e-14 0 0
4.881000000000e+11 0 0 4.7552825814758354e-01 -1.5450849718745288e-01 4.7552825814758354e-01 -1.5450849718745288e-01 0 0
4.882000000000e+11 0 0 4.0450849718742343e-01 -2.9389262614630579e-01 4.0450849718742343e-01 -2.9389262614630579e-01 0 0
4.883000000000e+11 0 0 2.9389262614617240e-01 -4.0450849718752035e-01 2.9389262614617240e-01 -4.0450849718752035e-01 0 0
4.884000000000e+11 0 0 1.5450849718751228e-01 -4.7552825814756428e-01 1.5450849718751228e-01 -4.7552825814756428e-01 0 0
4.885000000000e+11 0 0 -6.6899449678139546e-14 -5.0000000000000000e-01 -6.6899449678139546e-14 -5.0000000000000000e-01 0 0
4.886000000000e+11 0 0 -1.5450849718753143e-01 -4.7552825814755806e-01 -1.5450849718753143e-01 -4.7552825814755806e-01 0 0
4.887000000000e+11 0 0 -2.9389262614618866e-01 -4.0450849718750853e-01 -2.9389262614618866e-01 -4.0450849718750853e-01 0 0
4.888000000000e+11 0 0 -4.0450849718750204e-01 -2.9389262614619754e-01 -4.0450849718750204e-01 -2.9389262614619754e-01 0 0
4.889000000000e+11 0 0 -4.7552825814758976e-01 -1.5450849718743376e-01 -4.7552825814758976e-01 -1.5450849718743376e-01 0 0
4.890000000000e+11 0 0 -5.0000000000000000e-01 3.5782588818656479e-14 -5.0000000000000000e-01 3.5782588818656479e-14 0 0
4.891000000000e+11 0 0 -4.7552825814756766e-01 1.5450849718750181e-01 -4.7552825814756766e-01 1.5450849718750181e-01 0 0
4.892000000000e+11 0 0 -4.0450849718746001e-01 2.9389262614625544e-01 -4.0450849718746001e-01 2.9389262614625544e-01 0 0
4.893000000000e+11 0 0 -2.9389262614622269e-01 4.0450849718748377e-01 -2.9389262614622269e-01 4.0450849718748377e-01 0 0
4.894000000000e+11 0 0 -1.5450849718746335e-01 4.7552825814758015e-01 -1.5450849718746335e-01 4.7552825814758015e-01 0 0
4.895000000000e+11 0 0 4.6657279591734147e-15 5.0000000000000000e-01 4.6657279591734147e-15 5.0000000000000000e-01 0 0
4.896000000000e+11 0 0 1.5450849718747223e-01 4.7552825814757727e-01 1.5450849718747223e-01 4.7552825814757727e-01 0 0
4.897000000000e+11 0 0 2.9389262614623030e-01 4.0450849718747828e-01 2.9389262614623030e-01 4.0450849718747828e-01 0 0
4.898000000000e+11 0 0 4.0450849718753229e-01 2.9389262614615591e-01 4.0450849718753229e-01 2.9389262614615591e-01 0 0
4.899000000000e+11 0 0 4.7552825814757055e-01 1.5450849718749296e-01 4.7552825814757055e-01 1.5450849718749296e-01 0 0
4.900000000000e+11 0 0 5.0000000000000000e-01 2.6451132900309651e-14 5.0000000000000000e-01 2.6451132900309651e-14 0 0
4.901000000000e+11 0 0 4.7552825814755173e-01 -1.5450849718755075e-01 4.7552825814755173e-01 -1.5450849718755075e-01 0 0
4.902000000000e+11 0 0 4.0450849718749660e-01 -2.9389262614620509e-01 4.0450849718749660e-01 -2.9389262614620509e-01 0 0
4.903000000000e+11 0 0 2.9389262614618111e-01 -4.0450849718751403e-01 2.9389262614618111e-01 -4.0450849718751403e-01 0 0
4.904000000000e+11 0 0 1.5450849718741441e-01 -4.7552825814759603e-01 1.5450849718741441e-01 -4.7552825814759603e-01 0 0
4.905000000000e+11 0 0 5.7567993759792721e-14 -5.0000000000000000e-01 5.7567993759792721e-14 -5.0000000000000000e-01 0 0
4.906000000000e+11 0 0 -1.5450849718752116e-01 -4.7552825814756139e-01 -1.5450849718752116e-01 -4.7552825814756139e-01 0 0
4.907000000000e+11 0 0 -2.9389262614627187e-01 -4.0450849718744802e-01 -2.9389262614627187e-01 -4.0450849718744802e-01 0 0
4.908000000000e+11 0 0 -4.0450849718742887e-01 -2.9389262614629824e-01 -4.0450849718742887e-01 -2.9389262614629824e-01 0 0
4.909000000000e+11 0 0 -4.7552825814758642e-01 -1.5450849718744403e-01 -4.7552825814758642e-01 -1.5450849718744403e-01 0 0
4.910000000000e+11 0 0 -5.0000000000000000e-01 2.5001983102340245e-14 -5.0000000000000000e-01 2.5001983102340245e-14 0 0
4.911000000000e+11 0 0 -4.7552825814757099e-01 1.5450849718749157e-01 -4.7552825814757099e-01 1.5450849718749157e-01 0 0
4.912000000000e+11 0 0 -4.0450849718746634e-01 2.9389262614624673e-01 -4.0450849718746634e-01 2.9389262614624673e-01 0 0
4.913000000000e+11 0 0 -2.9389262614623146e-01 4.0450849718747744e-01 -2.9389262614623146e-01 4.0450849718747744e-01 0 0
4.914000000000e+11 0 0 -1.5450849718747361e-01 4.7552825814757682e-01 -1.5450849718747361e-01 4.7552825814757682e-01 0 0
4.915000000000e+11 0 0 -6.1148777571428232e-15 5.0000000000000000e-01 -6.1148777571428232e-15 5.0000000000000000e-01 0 0
4.916000000000e+11 0 0 1.5450849718746199e-01 4.7552825814758060e-01 1.5450849718746199e-01 4.7552825814758060e-01 0 0
4.917000000000e+11 0 0 2.9389262614631351e-01 4.0450849718741783e-01 2.9389262614631351e-01 4.0450849718741783e-01 0 0
4.918000000000e+11 0 0 4.0450849718745913e-01 2.9389262614625661e-01 4.0450849718745913e-01 2.9389262614625661e-01 0 0
4.919000000000e+11 0 0 4.7552825814760236e-01 1.5450849718739507e-01 4.7552825814760236e-01 1.5450849718739507e-01 0 0
4.920000000000e+11 0 0 5.0000000000000000e-01 -7.6455099104990144e-14 5.0000000000000000e-01 -7.6455099104990144e-14 0 0
4.921000000000e+11 0 0 4.7552825814759020e-01 -1.5450849718743237e-01 4.7552825814759020e-01 -1.5450849718743237e-01 0 0
4.922000000000e+11 0 0 4.0450849718743609e-01 -2.9389262614628836e-01 4.0450849718743609e-01 -2.9389262614628836e-01 0 0
4.923000000000e+11 0 0 2.9389262614618983e-01 -4.0450849718750770e-01 2.9389262614618983e-01 -4.0450849718750770e-01 0 0
4.924000000000e+11 0 0 1.5450849718753279e-01 -4.7552825814755761e-01 1.5450849718753279e-01 -4.7552825814755761e-01 0 0
4.925000000000e+11 0 0 -4.5338238245507070e-14 -5.0000000000000000e-01 -4.5338238245507070e-14 -5.0000000000000000e-01 0 0
4.926000000000e+11 0 0 -1.5450849718751092e-01 -4.7552825814756472e-01 -1.5450849718751092e-01 -4.7552825814756472e-01 0 0
4.927000000000e+11 0 0 -2.9389262614626316e-01 -4.0450849718745435e-01 -2.9389262614626316e-01 -4.0450849718745435e-01 0 0
4.928000000000e+11 0 0 -4.0450849718748938e-01 -2.9389262614621497e-01 -4.0450849718748938e-01 -2.9389262614621497e-01 0 0
4.929000000000e+11 0 0 -4.7552825814758309e-01 -1.5450849718745427e-01 -4.7552825814758309e-01 -1.5450849718745427e-01 0 0
4.930000000000e+11 0 0 -5.0000000000000000e-01 1.4221377386024007e-14 -5.0000000000000000e-01 1.4221377386024007e-14 0 0
4.931000000000e+11 0 0 -4.7552825814757432e-01 1.5450849718748133e-01 -4.7552825814757432e-01 1.5450849718748133e-01 0 0
4.932000000000e+11 0 0 -4.0450849718740584e-01 2.9389262614632999e-01 -4.0450849718740584e-01 2.9389262614632999e-01 0 0
4.933000000000e+11 0 0 -2.9389262614624018e-01 4.0450849718747112e-01 -2.9389262614624018e-01 4.0450849718747112e-01 0 0
4.934000000000e+11 0 0 -1.5450849718748386e-01 4.7552825814757349e-01 -1.5450849718748386e-01 4.7552825814757349e-01 0 0
4.935000000000e+11 0 0 9.6791354248156966e-14 5.0000000000000000e-01 9.6791354248156966e-14 5.0000000000000000e-01 0 0
4.936000000000e+11 0 0 1.5450849718745172e-01 4.7552825814758393e-01 1.5450849718745172e-01 4.7552825814758393e-01 0 0
4.937000000000e+11 0 0 2.9389262614621281e-01 4.0450849718749099e-01 2.9389262614621281e-01 4.0450849718749099e-01 0 0
4.938000000000e+11 0 0 4.0450849718751963e-01 2.9389262614617334e-01 4.0450849718751963e-01 2.9389262614617334e-01 0 0
4.939000000000e+11 0 0 4.7552825814756389e-01 1.5450849718751344e-01 4.7552825814756389e-01 1.5450849718751344e-01 0 0
4.940000000000e+11 0 0 5.0000000000000000e-01 -6.5674493388673906e-14 5.0000000000000000e-01 -6.5674493388673906e-14 0 0
4.941000000000e+11 0 0 4.7552825814755839e-01 -1.5450849718753026e-01 4.7552825814755839e-01 -1.5450849718753026e-01 0 0
4.942000000000e+11 0 0 4.0450849718750925e-01 -2.9389262614618766e-01 4.0450849718750925e-01 -2.9389262614618766e-01 0 0
4.943000000000e+11 0 0 2.9389262614619854e-01 -4.0450849718750131e-01 2.9389262614619854e-01 -4.0450849718750131e-01 0 0
4.944000000000e+11 0 0 1.5450849718743492e-01 -4.7552825814758937e-01 1.5450849718743492e-01 -4.7552825814758937e-01 0 0
4.945000000000e+11 0 0 7.9129205192425197e-14 -5.0000000000000000e-01 7.9129205192425197e-14 -5.0000000000000000e-01 0 0
4.946000000000e+11 0 0 -1.5450849718750065e-01 -4.7552825814756805e-01 -1.5450849718750065e-01 -4.7552825814756805e-01 0 0
4.947000000000e+11 0 0 -2.9389262614625444e-01 -4.0450849718746074e-01 -2.9389262614625444e-01 -4.0450849718746074e-01 0 0
4.948000000000e+11 0 0 -4.0450849718748305e-01 -2.9389262614622369e-01 -4.0450849718748305e-01 -2.9389262614622369e-01 0 0
4.949000000000e+11 0 0 -4.7552825814757976e-01 -1.5450849718746451e-01 -4.7552825814757976e-01 -1.5450849718746451e-01 0 0
4.950000000000e+11 0 0 -5.0000000000000000e-01 3.4407716697077679e-15 -5.0000000000000000e-01 3.4407716697077679e-15 0 0
4.951000000000e+11 0 0 -4.7552825814757765e-01 1.5450849718747106e-01 -4.7552825814757765e-01 1.5450849718747106e-01 0 0
4.952000000000e+11 0 0 -4.0450849718747900e-01 2.9389262614622930e-01 -4.0450849718747900e-01 2.9389262614622930e-01 0 0
4.953000000000e+11 0 0 -2.9389262614624889e-01 4.0450849718746479e-01 -2.9389262614624889e-01 4.0450849718746479e-01 0 0
4.954000000000e+11 0 0 -1.5450849718738599e-01 4.7552825814760530e-01 -1.5450849718738599e-01 4.7552825814760530e-01 0 0
4.955000000000e+11 0 0 -2.7676089189775298e-14 5.0000000000000000e-01 -2.7676089189775298e-14 5.0000000000000000e-01 0 0
4.956000000000e+11 0 0 1.5450849718754958e-01 4.7552825814755212e-01 1.5450849718754958e-01 4.7552825814755212e-01 0 0
4.957000000000e+11 0 0 2.9389262614629608e-01 4.0450849718743048e-01 2.9389262614629608e-01 4.0450849718743048e-01 0 0
4.958000000000e+11 0 0 4.0450849718744647e-01 2.9389262614627404e-01 4.0450849718744647e-01 2.9389262614627404e-01 0 0
4.959000000000e+11 0 0 4.7552825814759569e-01 1.5450849718741558e-01 4.7552825814759569e-01 1.5450849718741558e-01 0 0
4.960000000000e+11 0 0 5.0000000000000000e-01 -5.4893887672357661e-14 5.0000000000000000e-01 -5.4893887672357661e-14 0 0
4.961000000000e+11 0 0 4.7552825814756172e-01 -1.5450849718751999e-01 4.7552825814756172e-01 -1.5450849718751999e-01 0 0
4.962000000000e+11 0 0 4.0450849718744875e-01 -2.9389262614627093e-01 4.0450849718744875e-01 -2.9389262614627093e-01 0 0
4.963000000000e+11 0 0 2.9389262614620726e-01 -4.0450849718749499e-01 2.9389262614620726e-01 -4.0450849718749499e-01 0 0
4.964000000000e+11 0 0 1.5450849718744519e-01 -4.7552825814758604e-01 1.5450849718744519e-01 -4.7552825814758604e-01 0 0
4.965000000000e+11 0 0 -2.3777026812874598e-14 -5.0000000000000000e-01 -2.3777026812874598e-14 -5.0000000000000000e-01 0 0
4.966000000000e+11 0 0 -1.5450849718749041e-01 -4.7552825814757138e-01 -1.5450849718749041e-01 -4.7552825814757138e-01 0 0
4.967000000000e+11 0 0 -2.9389262614624573e-01 -4.0450849718746706e-01 -2.9389262614624573e-01 -4.0450849718746706e-01 0 0
4.968000000000e+11 0 0 -4.0450849718747672e-01 -2.9389262614623246e-01 -4.0450849718747672e-01 -2.9389262614623246e-01 0 0
4.969000000000e+11 0 0 -4.7552825814761157e-01 -1.5450849718736664e-01 -4.7552825814761157e-01 -1.5450849718736664e-01 0 0
4.970000000000e+11 0 0 -5.0000000000000000e-01 -7.3398340466084709e-15 -5.0000000000000000e-01 -7.3398340466084709e-15 0 0
4.971000000000e+11 0 0 -4.7552825814758098e-01 1.5450849718746082e-01 -4.7552825814758098e-01 1.5450849718746082e-01 0 0
4.972000000000e+11 0 0 -4.0450849718741849e-01 2.9389262614631251e-01 -4.0450849718741849e-01 2.9389262614631251e-01 0 0
4.973000000000e+11 0 0 -2.9389262614625761e-01 4.0450849718745840e-01 -2.9389262614625761e-01 4.0450849718745840e-01 0 0
4.974000000000e+11 0 0 -1.5450849718750437e-01 4.7552825814756683e-01 -1.5450849718750437e-01 4.7552825814756683e-01 0 0
4.975000000000e+11 0 0 7.5230142815524490e-14 5.0000000000000000e-01 7.5230142815524490e-14 5.0000000000000000e-01 0 0
4.976000000000e+11 0 0 1.5450849718743123e-01 4.7552825814759059e-01 1.5450849718743123e-01 4.7552825814759059e-01 0 0
4.977000000000e+11 0 0 2.9389262614628736e-01 4.0450849718743681e-01 2.9389262614628736e-01 4.0450849718743681e-01 0 0
4.978000000000e+11 0 0 4.0450849718750698e-01 2.9389262614619083e-01 4.0450849718750698e-01 2.9389262614619083e-01 0 0
4.979000000000e+11 0 0 4.7552825814755723e-01 1.5450849718753396e-01 4.7552825814755723e-01 1.5450849718753396e-01 0 0
4.980000000000e+11 0 0 5.0000000000000000e-01 -4.4113281956041423e-14 5.0000000000000000e-01 -4.4113281956041423e-14 0 0
4.981000000000e+11 0 0 4.7552825814756505e-01 -1.5450849718750975e-01 4.7552825814756505e-01 -1.5450849718750975e-01 0 0
4.982000000000e+11 0 0 4.0450849718752191e-01 -2.9389262614617023e-01 4.0450849718752191e-01 -2.9389262614617023e-01 0 0
4.983000000000e+11 0 0 2.9389262614621597e-01 -4.0450849718748866e-01 2.9389262614621597e-01 -4.0450849718748866e-01 0 0
4.984000000000e+11 0 0 1.5450849718745543e-01 -4.7552825814758271e-01 1.5450849718745543e-01 -4.7552825814758271e-01 0 0
4.985000000000e+11 0 0 -1.2996421096558358e-14 -5.0000000000000000e-01 -1.2996421096558358e-14 -5.0000000000000000e-01 0 0
4.986000000000e+11 0 0 -1.5450849718748016e-01 -4.7552825814757471e-01 -1.5450849718748016e-01 -4.7552825814757471e-01 0 0
4.987000000000e+11 0 0 -2.9389262614623701e-01 -4.0450849718747339e-01 -2.9389262614623701e-01 -4.0450849718747339e-01 0 0
4.988000000000e+11 0 0 -4.0450849718747039e-01 -2.9389262614624118e-01 -4.0450849718747039e-01 -2.9389262614624118e-01 0 0
4.989000000000e+11 0 0 -4.7552825814757310e-01 -1.5450849718748502e-01 -4.7552825814757310e-01 -1.5450849718748502e-01 0 0
4.990000000000e+11 0 0 -5.0000000000000000e-01 9.5566397958691326e-14 -5.0000000000000000e-01 9.5566397958691326e-14 0 0
4.991000000000e+11 0 0 -4.7552825814758432e-01 1.5450849718745055e-01 -4.7552825814758432e-01 1.5450849718745055e-01 0 0
4.992000000000e+11 0 0 -4.0450849718749166e-01 2.9389262614621181e-01 -4.0450849718749166e-01 2.9389262614621181e-01 0 0
4.993000000000e+11 0 0 -2.9389262614617434e-01 4.0450849718751891e-01 -2.9389262614617434e-01 4.0450849718751891e-01 0 0
4.994000000000e+11 0 0 -1.5450849718740650e-01 4.7552825814759864e-01 -1.5450849718740650e-01 4.7552825814759864e-01 0 0
4.995000000000e+11 0 0 -4.9237300622407777e-14 5.0000000000000000e-01 -4.9237300622407777e-14 5.0000000000000000e-01 0 0
4.996000000000e+11 0 0 1.5450849718752910e-01 4.7552825814755878e-01 1.5450849718752910e-01 4.7552825814755878e-01 0 0
4.997000000000e+11 0 0 2.9389262614627865e-01 4.0450849718744314e-01 2.9389262614627865e-01 4.0450849718744314e-01 0 0
4.998000000000e+11 0 0 4.0450849718750065e-01 2.9389262614619954e-01 4.0450849718750065e-01 2.9389262614619954e-01 0 0
4.999000000000e+11 0 0 4.7552825814758903e-01 1.5450849718743609e-01 4.7552825814758903e-01 1.5450849718743609e-01 0 0
5.000000000000e+11 0 0 5.0000000000000000e-01 -3.3332676239725186e-14 5.0000000000000000e-01 -3.3332676239725186e-14 0 0
